   Fe    O    C    H                    
   1.00000000000000     
    26.4036004835946052   -0.0001613732489066   -0.0000662854501055
   -13.2019399909923827   22.8662021084193228    0.0000014948844462
    -0.0000340011900861   -0.0000188112889725   13.5492409839038022
   Fe   O    C    H 
    36   108   216   252
Selective dynamics
Direct
  0.0426396595169365  0.6842046475148749  0.2386305728205471   T   T   T
  0.7093307362132322  0.0175924354628876  0.4053377729209160   T   T   T
  0.3760431531055204  0.3508534349783972  0.0719272395315258   T   T   T
  0.3157945060759033  0.3584345090234393  0.2386331085030235   T   T   T
  0.9824086663698637  0.6917399491381815  0.4053410981836123   T   T   T
  0.6491464122166306  0.0251860979941156  0.0719211180095485   T   T   T
  0.6415615568071615  0.9573598300381789  0.2386310983285327   T   T   T
  0.3082596259804546  0.2906689014115358  0.4053347543447501   T   T   T
  0.9748097978504688  0.6239574254787925  0.0719255695919401   T   T   T
  0.9573603144830614  0.3157953224851298  0.2613694421794577   T   T   T
  0.6239568468944796  0.6491465650216028  0.4280727684684749   T   T   T
  0.2906692637867678  0.9824075945371149  0.0946622270790840   T   T   T
  0.6842054639241013  0.6415654909765607  0.2613669064969812   T   T   T
  0.3508535877833694  0.9748139050058882  0.4280788899904522   T   T   T
  0.0175913636301388  0.3082600808618210  0.0946589018163877   T   T   T
  0.3584384431928385  0.0426401439618189  0.2613689166714721   T   T   T
  0.0251902051495350  0.3760425745212075  0.4280744384080606   T   T   T
  0.6917404040195478  0.7093310985884642  0.0946652456552499   T   T   T
  0.0426396595169365  0.6842046475148749  0.7386305578205423   T   T   T
  0.7093307362132322  0.0175924354628876  0.9053377729209160   T   T   T
  0.3760431531055204  0.3508534349783972  0.5719272615315276   T   T   T
  0.3157945060759033  0.3584345090234393  0.7386330935030188   T   T   T
  0.9824086663698637  0.6917399491381815  0.9053410981836123   T   T   T
  0.6491464122166306  0.0251860979941156  0.5719211400095503   T   T   T
  0.6415615568071615  0.9573598300381789  0.7386310833285279   T   T   T
  0.3082596259804546  0.2906689014115358  0.9053347543447501   T   T   T
  0.9748097978504688  0.6239574254787925  0.5719255915919419   T   T   T
  0.9573603144830614  0.3157953224851298  0.7613694421794577   T   T   T
  0.6239568468944796  0.6491465650216028  0.9280727384684724   T   T   T
  0.2906692637867678  0.9824075945371149  0.5946622270790840   T   T   T
  0.6842054639241013  0.6415654909765607  0.7613669064969812   T   T   T
  0.3508535877833694  0.9748139050058882  0.9280788599904497   T   T   T
  0.0175913636301388  0.3082600808618210  0.5946589018163877   T   T   T
  0.3584384431928385  0.0426401439618189  0.7613689166714721   T   T   T
  0.0251902051495350  0.3760425745212075  0.9280744084080581   T   T   T
  0.6917404040195478  0.7093310985884642  0.5946652456552499   T   T   T
  0.3496522162454312  0.3030186777067456  0.1989481449673605   T   T   T
  0.3029089303744286  0.2292969942722607  0.3048758395821451   T   T   T
  0.6947583358409943  0.9421481294630141  0.3382164087836586   T   T   T
  0.0160989086880008  0.6363108058543645  0.3656652210093014   T   T   T
  0.9693557069801528  0.5624882761383105  0.4713728053615540   T   T   T
  0.3616761444295307  0.2755073635076286  0.0049083695174019   T   T   T
  0.6830678289893797  0.9697588240861492  0.0323889566821407   T   T   T
  0.6362544450562240  0.8959639884809576  0.1381715263330605   T   T   T
  0.0280758959368299  0.6087898325601344  0.1715207714558176   T   T   T
  0.6969832193530507  0.0466354453512778  0.1989552322569565   T   T   T
  0.7707094061132196  0.0736210796248287  0.3048821317678048   T   T   T
  0.0578520746070552  0.7526127698079179  0.3382176399726262   T   T   T
  0.3636895280348682  0.3797891050055071  0.3656674497756214   T   T   T
  0.4375144091765151  0.4068671744438745  0.4713706613763549   T   T   T
  0.7244899372867266  0.0861650626114852  0.0049103142921680   T   T   T
  0.0302401379491144  0.7133027036654553  0.0323867645506226   T   T   T
  0.1040342233499842  0.7402924741011319  0.1381757654017477   T   T   T
  0.3912075330220617  0.4192900895114704  0.1715168726464569   T   T   T
  0.9533676548922330  0.6503498921214756  0.1989468475438585   T   T   T
  0.9263838623462988  0.6970882056751861  0.3048820341880969   T   T   T
  0.2473865082110436  0.3052386656999531  0.3382150142461740   T   T   T
  0.6202129421072868  0.9839013887750028  0.3656633906696243   T   T   T
  0.5931249957859137  0.0306357540042157  0.4713710214861351   T   T   T
  0.9138321683601660  0.6383231841752277  0.0049185348147276   T   T   T
  0.2866951897283698  0.3169355155251452  0.0323834930080622   T   T   T
  0.2597112896969449  0.3637422525837763  0.1381708330076847   T   T   T
  0.5807096771827176  0.9719173488512567  0.1715232123059565   T   T   T
  0.6503477547545700  0.6969813222932544  0.3010518700326372   T   T   T
  0.6970910696255714  0.7707030207277370  0.1951241604178549   T   T   T
  0.3052416641590057  0.0578518745369863  0.1617835912163414   T   T   T
  0.3169321710106203  0.0302411889138483  0.4676110473178596   T   T   T
  0.3637455249437735  0.1040360035190417  0.3618284886669372   T   T   T
  0.9719241040631701  0.3912101974398681  0.3284792135441847   T   T   T
  0.9839011203119981  0.3636891651456367  0.1343347789906986   T   T   T
  0.0306442990198477  0.4375117538616919  0.0286271906384457   T   T   T
  0.6383238855704718  0.7244926664923739  0.4950916294826015   T   T   T
  0.3030167806469493  0.9533645366487207  0.3010447827430411   T   T   T
  0.2292906088867781  0.9263789053751665  0.1951178682321952   T   T   T
  0.9421479293929451  0.2473872301920821  0.1617823600273738   T   T   T
  0.9697598750508831  0.2866972663345422  0.4676132394493777   T   T   T
  0.8959657686500151  0.2597074958988728  0.3618242495982500   T   T   T
  0.6087924969779408  0.5807099404885321  0.3284831123535454   T   T   T
  0.6363104429651329  0.6202108949944929  0.1343325502243786   T   T   T
  0.5624856208234874  0.5931328255561255  0.0286293346236448   T   T   T
  0.2755100927132759  0.9138349373885148  0.4950896847078354   T   T   T
  0.0466323271077655  0.3496500788785255  0.3010531674561392   T   T   T
  0.0736161226536964  0.3029117943248139  0.1951179658119031   T   T   T
  0.7526134917889564  0.6947613343000469  0.1617849857538260   T   T   T
  0.7133047802716277  0.6830644844748548  0.4676165109919381   T   T   T
  0.7402886803030597  0.6362577174162212  0.3618291819923130   T   T   T
  0.4192903528172849  0.0280826511487433  0.3284767726940458   T   T   T
  0.3797870578927132  0.0160986402249961  0.1343366093303757   T   T   T
  0.4068750042140863  0.9693642519957848  0.0286289745138646   T   T   T
  0.0861678316398340  0.3616768458247748  0.4950814641852759   T   T   T
  0.3496522162454312  0.3030186777067456  0.6989481599673582   T   T   T
  0.3029089303744286  0.2292969942722607  0.8048758395821451   T   T   T
  0.6947583358409943  0.9421481294630141  0.8382164087836586   T   T   T
  0.0160989086880008  0.6363108058543645  0.8656651910092990   T   T   T
  0.9693557069801528  0.5624882761383105  0.9713728353615494   T   T   T
  0.3616761444295307  0.2755073635076286  0.5049083405173960   T   T   T
  0.6830678289893797  0.9697588240861492  0.5323889526821404   T   T   T
  0.6362544450562240  0.8959639884809576  0.6381715113330628   T   T   T
  0.0280758959368299  0.6087898325601344  0.6715207564558199   T   T   T
  0.6969832193530507  0.0466354453512778  0.6989552472569542   T   T   T
  0.7707094061132196  0.0736210796248287  0.8048821317678048   T   T   T
  0.0578520746070552  0.7526127698079179  0.8382176399726262   T   T   T
  0.3636895280348682  0.3797891050055071  0.8656674197756189   T   T   T
  0.4375144091765151  0.4068671744438745  0.9713706913763502   T   T   T
  0.7244899372867266  0.0861650626114852  0.5049102852921621   T   T   T
  0.0302401379491144  0.7133027036654553  0.5323867605506223   T   T   T
  0.1040342233499842  0.7402924741011319  0.6381757504017500   T   T   T
  0.3912075330220617  0.4192900895114704  0.6715168576464592   T   T   T
  0.9533676548922330  0.6503498921214756  0.6989468625438491   T   T   T
  0.9263838623462988  0.6970882056751861  0.8048820341880969   T   T   T
  0.2473865082110436  0.3052386656999531  0.8382150142461740   T   T   T
  0.6202129421072868  0.9839013887750028  0.8656633606696218   T   T   T
  0.5931249957859137  0.0306357540042157  0.9713710514861305   T   T   T
  0.9138321683601660  0.6383231841752277  0.5049185058147216   T   T   T
  0.2866951897283698  0.3169355155251452  0.5323834890080619   T   T   T
  0.2597112896969449  0.3637422525837763  0.6381708180076870   T   T   T
  0.5807096771827176  0.9719173488512567  0.6715231973059588   T   T   T
  0.6503477547545700  0.6969813222932544  0.8010518400326418   T   T   T
  0.6970910696255714  0.7707030207277370  0.6951241604178549   T   T   T
  0.3052416641590057  0.0578518745369863  0.6617835912163414   T   T   T
  0.3169321710106203  0.0302411889138483  0.9676110473178596   T   T   T
  0.3637455249437735  0.1040360035190417  0.8618284886669372   T   T   T
  0.9719241040631701  0.3912101974398681  0.8284792435441801   T   T   T
  0.9839011203119981  0.3636891651456367  0.6343348089907010   T   T   T
  0.0306442990198477  0.4375117538616919  0.5286271646384506   T   T   T
  0.6383238855704718  0.7244926664923739  0.9950916594826040   T   T   T
  0.3030167806469493  0.9533645366487207  0.8010447527430458   T   T   T
  0.2292906088867781  0.9263789053751665  0.6951178682321952   T   T   T
  0.9421479293929451  0.2473872301920821  0.6617823600273738   T   T   T
  0.9697598750508831  0.2866972663345422  0.9676132394493777   T   T   T
  0.8959657686500151  0.2597074958988728  0.8618242495982500   T   T   T
  0.6087924969779408  0.5807099404885321  0.8284831423535408   T   T   T
  0.6363104429651329  0.6202108949944929  0.6343325802243811   T   T   T
  0.5624856208234874  0.5931328255561255  0.5286293086236498   T   T   T
  0.2755100927132759  0.9138349373885148  0.9950897147078379   T   T   T
  0.0466323271077655  0.3496500788785255  0.8010531374561509   T   T   T
  0.0736161226536964  0.3029117943248139  0.6951179658119031   T   T   T
  0.7526134917889564  0.6947613343000469  0.6617849857538260   T   T   T
  0.7133047802716277  0.6830644844748548  0.9676165109919381   T   T   T
  0.7402886803030597  0.6362577174162212  0.8618291819923130   T   T   T
  0.4192903528172849  0.0280826511487433  0.8284768026940412   T   T   T
  0.3797870578927132  0.0160986402249961  0.6343366393303782   T   T   T
  0.4068750042140863  0.9693642519957848  0.5286289485138695   T   T   T
  0.0861678316398340  0.3616768458247748  0.9950814941852784   T   T   T
  0.3266040325097208  0.2474447645364322  0.2203839475555043   T   T   T
  0.3301887008792903  0.2077136826983619  0.1474969228857717   T   T   T
  0.6813480478012295  0.8902963170323446  0.3796149009813234   T   T   T
  0.6841738937385955  0.8484643742956166  0.3193397769876256   T   T   T
  0.5125515888582939  0.8344354664903051  0.3301048725653928   T   T   T
  0.1647232317255387  0.1748789459571540  0.1040183036225741   T   T   T
  0.9930810809614457  0.5807140631380818  0.3869498449897293   T   T   T
  0.9967874654444486  0.5410519862952228  0.3140812081477051   T   T   T
  0.3480752809983088  0.2236107619097538  0.0463420021023850   T   T   T
  0.3508164019849573  0.1817371609888241  0.4860457582392712   T   T   T
  0.1792096628076720  0.1677540067828502  0.4967625325391651   T   T   T
  0.8313778927599458  0.5082026939416480  0.2707725750306622   T   T   T
  0.6599590961979231  0.9141575965590931  0.0537054197532498   T   T   T
  0.6635473914557650  0.8744355912157644  0.4808053283887972   T   T   T
  0.0146182063314981  0.5569192514565202  0.2129201545366826   T   T   T
  0.0174622978924006  0.5150811804737501  0.1526964285347390   T   T   T
  0.8458545189754076  0.5010985486568558  0.1634991131572434   T   T   T
  0.4980575546990806  0.8415346858058967  0.4373633955440042   T   T   T
  0.7525596302214055  0.0791630523964457  0.2203872467749903   T   T   T
  0.7922870116027880  0.1224765008645363  0.1474938551984337   T   T   T
  0.1097013032330736  0.7910534516180121  0.3796185188418590   T   T   T
  0.1515357748386919  0.8357076181096375  0.3193418522042677   T   T   T
  0.1655646203684995  0.6781138337162318  0.3301073110368122   T   T   T
  0.8251202974521092  0.9898428824905423  0.1040177782695366   T   T   T
  0.4192874148112580  0.4123671021331248  0.3869493960683386   T   T   T
  0.4589475904481262  0.4557374111310395  0.3140824635868356   T   T   T
  0.7763906001141834  0.1244669679924328  0.0463385040695741   T   T   T
  0.8182624228912374  0.1690787495128774  0.4860442733995143   T   T   T
  0.8322457583856959  0.0114554153341118  0.4967625839990149   T   T   T
  0.4917981425115414  0.3231768016691703  0.2707707615915567   T   T   T
  0.0858413858932110  0.7458015062621399  0.0537075758254559   T   T   T
  0.1255642442975358  0.7891111063141878  0.4808061518359494   T   T   T
  0.4430798143006598  0.4576958402759672  0.2129209186165113   T   T   T
  0.4849182614263512  0.5023819529965934  0.1526967501361227   T   T   T
  0.4989017055307983  0.3447601390854729  0.1635003298401330   T   T   T
  0.1584651727943083  0.6565197136154950  0.4373655799845864   T   T   T
  0.9208387104978968  0.6733963492725152  0.2203857852610582   T   T   T
  0.8775255300979623  0.6698115322295664  0.1474972719274632   T   T   T
  0.2089478761411172  0.3186483099793023  0.3796113812787638   T   T   T
  0.1642894016624652  0.3158254852234279  0.3193402069333828   T   T   T
  0.3218848848132083  0.4874484667780408  0.3301040645125894   T   T   T
  0.0101580750694268  0.8352798122836802  0.1040227683549162   T   T   T
  0.5876290297455569  0.0069151322718994  0.3869442605936158   T   T   T
  0.5442611102806723  0.0032093168415699  0.3140822121623330   T   T   T
  0.8755315837788871  0.6519250991282846  0.0463417033583156   T   T   T
  0.8309205908638120  0.6491832450239414  0.4860455939022046   T   T   T
  0.9885436880344969  0.8207889181562820  0.4967621831693876   T   T   T
  0.6768227298804348  0.1686211866517979  0.2707698356625627   T   T   T
  0.2542017561431109  0.3400394688157675  0.0537061543249067   T   T   T
  0.2108882822541673  0.3364507851043115  0.4808015334287035   T   T   T
  0.5423000965051159  0.9853794770064752  0.2129236850717291   T   T   T
  0.4976171410164767  0.9825375272765839  0.1526944010339193   T   T   T
  0.6552418760480592  0.1541451297123260  0.1634993742124422   T   T   T
  0.3434794373620988  0.5019426653337433  0.4373626836642472   T   T   T
  0.6733959674902792  0.7525552654635632  0.2796160674444934   T   T   T
  0.6698112991207097  0.7922863173016381  0.3525030921142260   T   T   T
  0.3186519521987705  0.1097036899676596  0.1203850920186795   T   T   T
  0.3158260762614020  0.1515355967043774  0.1806602230123744   T   T   T
  0.4874484111417061  0.1655645485096926  0.1698951124346095   T   T   T
  0.8352767382744588  0.8251210390428483  0.3959817033774229   T   T   T
  0.3400409038020769  0.0858423884409092  0.4462945872467543   T   T   T
  0.3364526085442350  0.1255644387842381  0.0191946766111997   T   T   T
  0.9853817976684951  0.4430807785434823  0.2870798304633198   T   T   T
  0.9825376911076020  0.4849188195262499  0.3473035864652587   T   T   T
  0.1541455110245948  0.4989014213431417  0.3365008868427566   T   T   T
  0.5019424453009194  0.1584652841941008  0.0626366044559958   T   T   T
  0.0069188950385595  0.4192859368619182  0.1130501550102707   T   T   T
  0.0032125585555534  0.4589479837047818  0.1859188068522926   T   T   T
  0.6519247490016937  0.7763892530902510  0.4536580128976198   T   T   T
  0.6491835980150427  0.8182628100111771  0.0139542387607250   T   T   T
  0.8207903371923280  0.8322459932171498  0.0032374804608395   T   T   T
  0.1686220922400565  0.4917973060583520  0.2292274249693378   T   T   T
  0.2474403997785899  0.9208369706035597  0.2796127682250074   T   T   T
  0.2077129883972120  0.8775234991354637  0.3525061598015640   T   T   T
  0.8902987037669305  0.2089465633819927  0.1203814741581439   T   T   T
  0.8484641961613022  0.1642923818903625  0.1806581477957323   T   T   T
  0.8344353946314982  0.3218861962837636  0.1698926739631901   T   T   T
  0.1748796875478931  0.0101571335094590  0.3959822287304604   T   T   T
  0.9141585991067913  0.2541984937378601  0.4462924311745482   T   T   T
  0.8744357857024667  0.2108889236858147  0.0191938531640474   T   T   T
  0.5569202156993427  0.5423041307240268  0.2870790663834910   T   T   T
  0.5150817385736488  0.4976180470034066  0.3473032648638750   T   T   T
  0.5010982644691993  0.6552398609145271  0.3364996701598670   T   T   T
  0.8415347972056892  0.3434802563845025  0.0626344200154136   T   T   T
  0.5807125851887491  0.5876328678668798  0.1130506039316614   T   T   T
  0.5410523795518785  0.5442625888689605  0.1859175514131621   T   T   T
  0.2236094148858214  0.8755330400075678  0.4536615109304307   T   T   T
  0.1817375481087637  0.8309212804871180  0.0139557236004819   T   T   T
  0.1677542416143041  0.9885445816658844  0.0032374290009898   T   T   T
  0.5082018574884586  0.6768231983308297  0.2292292384084433   T   T   T
  0.0791613125021087  0.3266036507274848  0.2796142297389395   T   T   T
  0.1224744699020377  0.3301884677704336  0.3525027430725345   T   T   T
  0.7910521388588876  0.6813516900206977  0.1203886117212392   T   T   T
  0.8357105983375348  0.6841744847765696  0.1806597930666172   T   T   T
  0.6781151451867871  0.5125515332219592  0.1698959204874129   T   T   T
  0.9898419409305745  0.1647201577163173  0.3959772386450808   T   T   T
  0.7457982438568891  0.6599605311842325  0.4462938526750975   T   T   T
  0.7891117477458351  0.6635492148956885  0.0191984715712934   T   T   T
  0.4576998744948781  0.0146205269935180  0.2870762999282732   T   T   T
  0.5023828589835233  0.0174624617234187  0.3473056139660784   T   T   T
  0.3447581239519408  0.8458549002876765  0.3365006257875578   T   T   T
  0.6565205326378987  0.4980573346662567  0.0626373163357528   T   T   T
  0.4123709402544478  0.9930848437281057  0.1130557394063842   T   T   T
  0.4557388897193277  0.9967907071584321  0.1859178028376647   T   T   T
  0.1244684242211136  0.3480749308717179  0.4536583116416892   T   T   T
  0.1690794391361834  0.3508167549760586  0.0139544030977916   T   T   T
  0.0114563089654922  0.1792110818437180  0.0032378298306170   T   T   T
  0.3231772701195652  0.8313787983482044  0.2292301643374373   T   T   T
  0.3266040325097208  0.2474447645364322  0.7203839325555066   T   T   T
  0.3301887008792903  0.2077136826983619  0.6474969378857693   T   T   T
  0.6813480478012295  0.8902963170323446  0.8796149309813188   T   T   T
  0.6841738937385955  0.8484643742956166  0.8193397469876302   T   T   T
  0.5125515888582939  0.8344354664903051  0.8301049025653953   T   T   T
  0.1647232317255387  0.1748789459571540  0.6040182966225771   T   T   T
  0.9930810809614457  0.5807140631380818  0.8869498449897293   T   T   T
  0.9967874654444486  0.5410519862952228  0.8140811781477097   T   T   T
  0.3480752809983088  0.2236107619097538  0.5463419871023802   T   T   T
  0.3508164019849573  0.1817371609888241  0.9860457582392712   T   T   T
  0.1792096628076720  0.1677540067828502  0.9967625025391555   T   T   T
  0.8313778927599458  0.5082026939416480  0.7707725750306622   T   T   T
  0.6599590961979231  0.9141575965590931  0.5537054427532482   T   T   T
  0.6635473914557650  0.8744355912157644  0.9808053283887972   T   T   T
  0.0146182063314981  0.5569192514565202  0.7129201695366802   T   T   T
  0.0174622978924006  0.5150811804737501  0.6526964435347438   T   T   T
  0.8458545189754076  0.5010985486568558  0.6634991131572505   T   T   T
  0.4980575546990806  0.8415346858058967  0.9373634255439995   T   T   T
  0.7525596302214055  0.0791630523964457  0.7203872317749926   T   T   T
  0.7922870116027880  0.1224765008645363  0.6474938701984314   T   T   T
  0.1097013032330736  0.7910534516180121  0.8796185488418544   T   T   T
  0.1515357748386919  0.8357076181096375  0.8193418222042723   T   T   T
  0.1655646203684995  0.6781138337162318  0.8301073410368147   T   T   T
  0.8251202974521092  0.9898428824905423  0.6040177712695396   T   T   T
  0.4192874148112580  0.4123671021331248  0.8869493960683386   T   T   T
  0.4589475904481262  0.4557374111310395  0.8140824335868402   T   T   T
  0.7763906001141834  0.1244669679924328  0.5463384890695693   T   T   T
  0.8182624228912374  0.1690787495128774  0.9860442733995143   T   T   T
  0.8322457583856959  0.0114554153341118  0.9967625539990124   T   T   T
  0.4917981425115414  0.3231768016691703  0.7707707615915567   T   T   T
  0.0858413858932110  0.7458015062621399  0.5537075988254543   T   T   T
  0.1255642442975358  0.7891111063141878  0.9808061518359494   T   T   T
  0.4430798143006598  0.4576958402759672  0.7129209336165090   T   T   T
  0.4849182614263512  0.5023819529965934  0.6526967651361275   T   T   T
  0.4989017055307983  0.3447601390854729  0.6635003298401401   T   T   T
  0.1584651727943083  0.6565197136154950  0.9373656099845817   T   T   T
  0.9208387104978968  0.6733963492725152  0.7203857702610605   T   T   T
  0.8775255300979623  0.6698115322295664  0.6474972869274609   T   T   T
  0.2089478761411172  0.3186483099793023  0.8796114112787592   T   T   T
  0.1642894016624652  0.3158254852234279  0.8193401769333875   T   T   T
  0.3218848848132083  0.4874484667780408  0.8301040945125919   T   T   T
  0.0101580750694268  0.8352798122836802  0.6040227613549192   T   T   T
  0.5876290297455569  0.0069151322718994  0.8869442605936158   T   T   T
  0.5442611102806723  0.0032093168415699  0.8140821821623376   T   T   T
  0.8755315837788871  0.6519250991282846  0.5463416883583108   T   T   T
  0.8309205908638120  0.6491832450239414  0.9860455939022046   T   T   T
  0.9885436880344969  0.8207889181562820  0.9967621531693851   T   T   T
  0.6768227298804348  0.1686211866517979  0.7707698356625627   T   T   T
  0.2542017561431109  0.3400394688157675  0.5537061773249050   T   T   T
  0.2108882822541673  0.3364507851043115  0.9808015334287035   T   T   T
  0.5423000965051159  0.9853794770064752  0.7129237000717268   T   T   T
  0.4976171410164767  0.9825375272765839  0.6526944160339241   T   T   T
  0.6552418760480592  0.1541451297123260  0.6634993742124493   T   T   T
  0.3434794373620988  0.5019426653337433  0.9373627136642426   T   T   T
  0.6733959674902792  0.7525552654635632  0.7796160674444934   T   T   T
  0.6698112991207097  0.7922863173016381  0.8525030621142307   T   T   T
  0.3186519521987705  0.1097036899676596  0.6203850690186812   T   T   T
  0.3158260762614020  0.1515355967043774  0.6806602530123698   T   T   T
  0.4874484111417061  0.1655645485096926  0.6698950974346047   T   T   T
  0.8352767382744588  0.8251210390428483  0.8959817033774229   T   T   T
  0.3400409038020769  0.0858423884409092  0.9462945572467518   T   T   T
  0.3364526085442350  0.1255644387842381  0.5191946716112028   T   T   T
  0.9853817976684951  0.4430807785434823  0.7870798304633198   T   T   T
  0.9825376911076020  0.4849188195262499  0.8473035564652562   T   T   T
  0.1541455110245948  0.4989014213431417  0.8365008868427495   T   T   T
  0.5019424453009194  0.1584652841941008  0.5626365744560005   T   T   T
  0.0069188950385595  0.4192859368619182  0.6130501550102707   T   T   T
  0.0032125585555534  0.4589479837047818  0.6859188218522903   T   T   T
  0.6519247490016937  0.7763892530902510  0.9536580128976198   T   T   T
  0.6491835980150427  0.8182628100111771  0.5139542417607288   T   T   T
  0.8207903371923280  0.8322459932171498  0.5032374974608445   T   T   T
  0.1686220922400565  0.4917973060583520  0.7292274249693378   T   T   T
  0.2474403997785899  0.9208369706035597  0.7796127682250074   T   T   T
  0.2077129883972120  0.8775234991354637  0.8525061298015686   T   T   T
  0.8902987037669305  0.2089465633819927  0.6203814511581456   T   T   T
  0.8484641961613022  0.1642923818903625  0.6806581777957277   T   T   T
  0.8344353946314982  0.3218861962837636  0.6698926589631853   T   T   T
  0.1748796875478931  0.0101571335094590  0.8959822287304604   T   T   T
  0.9141585991067913  0.2541984937378601  0.9462924011745457   T   T   T
  0.8744357857024667  0.2108889236858147  0.5191938481640506   T   T   T
  0.5569202156993427  0.5423041307240268  0.7870790663834910   T   T   T
  0.5150817385736488  0.4976180470034066  0.8473032348638725   T   T   T
  0.5010982644691993  0.6552398609145271  0.8364996701598599   T   T   T
  0.8415347972056892  0.3434802563845025  0.5626343900154183   T   T   T
  0.5807125851887491  0.5876328678668798  0.6130506039316614   T   T   T
  0.5410523795518785  0.5442625888689605  0.6859175664131598   T   T   T
  0.2236094148858214  0.8755330400075678  0.9536615109304307   T   T   T
  0.1817375481087637  0.8309212804871180  0.5139557266004857   T   T   T
  0.1677542416143041  0.9885445816658844  0.5032374460009876   T   T   T
  0.5082018574884586  0.6768231983308297  0.7292292384084433   T   T   T
  0.0791613125021087  0.3266036507274848  0.7796142297389395   T   T   T
  0.1224744699020377  0.3301884677704336  0.8525027130725391   T   T   T
  0.7910521388588876  0.6813516900206977  0.6203885887212408   T   T   T
  0.8357105983375348  0.6841744847765696  0.6806598230666125   T   T   T
  0.6781151451867871  0.5125515332219592  0.6698959054874081   T   T   T
  0.9898419409305745  0.1647201577163173  0.8959772386450808   T   T   T
  0.7457982438568891  0.6599605311842325  0.9462938226750950   T   T   T
  0.7891117477458351  0.6635492148956885  0.5191984665712965   T   T   T
  0.4576998744948781  0.0146205269935180  0.7870762999282732   T   T   T
  0.5023828589835233  0.0174624617234187  0.8473055839660759   T   T   T
  0.3447581239519408  0.8458549002876765  0.8365006257875507   T   T   T
  0.6565205326378987  0.4980573346662567  0.5626372863357574   T   T   T
  0.4123709402544478  0.9930848437281057  0.6130557394063842   T   T   T
  0.4557388897193277  0.9967907071584321  0.6859178178376624   T   T   T
  0.1244684242211136  0.3480749308717179  0.9536583116416892   T   T   T
  0.1690794391361834  0.3508167549760586  0.5139544060977954   T   T   T
  0.0114563089654922  0.1792110818437180  0.5032378468306149   T   T   T
  0.3231772701195652  0.8313787983482044  0.7292301643374373   T   T   T
  0.6976297240863332  0.8601584300259191  0.2429801340522815   T   T   T
  0.4793100516668218  0.7922024612590945  0.2990119309588906   T   T   T
  0.5142498453500366  0.8689065987564462  0.2821761888922367   T   T   T
  0.5548754342690287  0.8358665696330903  0.3251311088278328   T   T   T
  0.1981375860779195  0.2168079987272833  0.1354689935775824   T   T   T
  0.1224205604999611  0.1734815084268035  0.1086744685066634   T   T   T
  0.1623444376206464  0.1398743775402096  0.1514032551086899   T   T   T
  0.3642538292839888  0.1934595459120487  0.4096730827190029   T   T   T
  0.1459710205186511  0.1255079906082486  0.4657103756157781   T   T   T
  0.1808848426134233  0.2022108188664831  0.4488266460295094   T   T   T
  0.2215394138894595  0.1691988264528419  0.4917647519039008   T   T   T
  0.8648194988608893  0.5501207244984201  0.3022193377519002   T   T   T
  0.7890966280031151  0.5068438283745635  0.2754957628958508   T   T   T
  0.8289869756885295  0.4731801986559532  0.3181280253398100   T   T   T
  0.0308867195185840  0.5267766863206660  0.0763155532579347   T   T   T
  0.8126227775156352  0.4588562791592636  0.1324088217690544   T   T   T
  0.8475461707988927  0.5355652237301669  0.1155627231612186   T   T   T
  0.8881869853441060  0.5025414591737984  0.1585053599049289   T   T   T
  0.5314553098157901  0.8834778809645698  0.4688169806316793   T   T   T
  0.4557422138345402  0.8401056369947639  0.4420443189356362   T   T   T
  0.4957190702347916  0.8065383313721100  0.4847312362876650   T   T   T
  0.1398419951309293  0.8374732289803219  0.2429820802452127   T   T   T
  0.2077949891536122  0.6871040670166124  0.2990110096750414   T   T   T
  0.1310930235906014  0.6453428119070921  0.2821771707590699   T   T   T
  0.1641370898099908  0.7190083184423486  0.3251302641607268   T   T   T
  0.7831914446192769  0.9813267887159682  0.1354714335118246   T   T   T
  0.8265191884439673  0.9489389295208994  0.1086742884600014   T   T   T
  0.8601249870526146  0.0224716149931439  0.1514003247517408   T   T   T
  0.8065416840992654  0.1707945812102452  0.4096714206093779   T   T   T
  0.8744935681472654  0.0204667006767778  0.4657109891175040   T   T   T
  0.7977909681136452  0.9786714794777964  0.4488264532567996   T   T   T
  0.8307938147514733  0.0523361281402046  0.4917635733624195   T   T   T
  0.4498807925713919  0.3146999606275358  0.3022186172418699   T   T   T
  0.4931553654671248  0.2822542698040351  0.2754936631182474   T   T   T
  0.5268199226673715  0.3558059896965560  0.3181317064236424   T   T   T
  0.4732233985903633  0.5041070969761279  0.0763150440861864   T   T   T
  0.5411425697135428  0.3537681616642629  0.1324108134788418   T   T   T
  0.4644339858861244  0.3119857249362923  0.1155625444779673   T   T   T
  0.4974631658044544  0.3856515002825702  0.1585109085066208   T   T   T
  0.1165216804083471  0.6479766465152395  0.4688137052881700   T   T   T
  0.1598959109969229  0.6156352472468996  0.4420452498348624   T   T   T
  0.1934606740834326  0.6891814034270496  0.4847314859377789   T   T   T
  0.1625275060322906  0.3023690917325297  0.2429786518643127   T   T   T
  0.3128955599175782  0.5206916631494352  0.2990112711546544   T   T   T
  0.3546571612132325  0.4857480782280419  0.2821785018273602   T   T   T
  0.2809906973222525  0.4451251117882933  0.3251316806790570   T   T   T