   Fe    O    C    H                    
   1.00000000000000     
    26.1756560262395617   -0.0001276769588888   -0.0000368200331907
   -13.0879385968567892   22.6688363790900844    0.0000648493957204
    -0.0000197165557816    0.0000287582803022   14.0600050822734648
   Fe   O    C    H 
    36   108   216   108
Selective dynamics
Direct
  0.9424545303946630  0.6259660044204622  0.2560675853274432   T   T   T
  0.6091192358285866  0.9592969343740734  0.4227367562674331   T   T   T
  0.2757845062839337  0.2926311583085521  0.0893974877540487   T   T   T
  0.3740322063430384  0.3164865558407257  0.2560664602420673   T   T   T
  0.0407004692192245  0.6498219602877668  0.4227380167463579   T   T   T
  0.7073662583897757  0.9831515672773321  0.0894001901594876   T   T   T
  0.6835114175353709  0.0575455136216547  0.2560686709426321   T   T   T
  0.3501784173269584  0.3908792368348131  0.4227338926156747   T   T   T
  0.0168467038382403  0.7242164503949127  0.0894026164707000   T   T   T
  0.0575454469558068  0.3740340165239218  0.2439322751032833   T   T   T
  0.7242150660101458  0.7073662244355816  0.4106010602285366   T   T   T
  0.3908806500846467  0.0407025350230938  0.0772629092283168   T   T   T
  0.6259670207059429  0.6835129619995328  0.2439330608667660   T   T   T
  0.2926335069089276  0.0168475804860506  0.4105994913101227   T   T   T
  0.9592994455028219  0.3501779223320582  0.0772617990384745   T   T   T
  0.3164898432883518  0.9424548607905692  0.2439341122022682   T   T   T
  0.9831530819616603  0.2757834882505676  0.4105977154508054   T   T   T
  0.6498206624017868  0.6091201881275694  0.0772662497292131   T   T   T
  0.9424545303946630  0.6259660044204622  0.7560675853274432   T   T   T
  0.6091192358285866  0.9592969343740734  0.9227367262674306   T   T   T
  0.2757845062839337  0.2926311583085521  0.5893974877540487   T   T   T
  0.3740322063430384  0.3164865558407257  0.7560664602420673   T   T   T
  0.0407004692192245  0.6498219602877668  0.9227379867463554   T   T   T
  0.7073662583897757  0.9831515672773321  0.5894001901594876   T   T   T
  0.6835114175353709  0.0575455136216547  0.7560686709426321   T   T   T
  0.3501784173269584  0.3908792368348131  0.9227338626156723   T   T   T
  0.0168467038382403  0.7242164503949127  0.5894026164706929   T   T   T
  0.0575454469558068  0.3740340165239218  0.7439322601032856   T   T   T
  0.7242150660101458  0.7073662244355816  0.9106010602285366   T   T   T
  0.3908806500846467  0.0407025350230938  0.5772629312283186   T   T   T
  0.6259670207059429  0.6835129619995328  0.7439330458667754   T   T   T
  0.2926335069089276  0.0168475804860506  0.9105994913101227   T   T   T
  0.9592994455028219  0.3501779223320582  0.5772618210384763   T   T   T
  0.3164898432883518  0.9424548607905692  0.7439340972022706   T   T   T
  0.9831530819616603  0.2757834882505676  0.9105977154508054   T   T   T
  0.6498206624017868  0.6091201881275694  0.5772662717292150   T   T   T
  0.6822740156662590  0.9753571731861825  0.3253218989477205   T   T   T
  0.6951751519131761  0.9261136052619108  0.2043379362960422   T   T   T
  0.3138955479816801  0.2525140415489915  0.1645992850494622   T   T   T
  0.3489406969199109  0.3086938921459392  0.4919871141953180   T   T   T
  0.3618489184830551  0.2594538807055500  0.3710072597443954   T   T   T
  0.9805663402063445  0.5858455866845347  0.3312694021691698   T   T   T
  0.0156060952027488  0.6420260048796820  0.1586549923690868   T   T   T
  0.0285163217408027  0.5927859163164584  0.0376740286991364   T   T   T
  0.6472300377159215  0.9191753046350541  0.4979319395670387   T   T   T
  0.0246430312060468  0.7069163189107144  0.3253222149763815   T   T   T
  0.0738806010351922  0.7690634193761170  0.2043437413969258   T   T   T
  0.7474850418872236  0.0613842482682614  0.1646015120475042   T   T   T
  0.6913068318317102  0.0402469632267781  0.4919854438015534   T   T   T
  0.7405445667634609  0.1023979245667448  0.3710143988361168   T   T   T
  0.4141541572319056  0.3947191561662180  0.3312667525328123   T   T   T
  0.3579729596959638  0.3735801914959467  0.1586535295863882   T   T   T
  0.4072120242331962  0.4357265139982047  0.0376727727695183   T   T   T
  0.0808196605338622  0.7280562939062349  0.4979330833360223   T   T   T
  0.2930852627619558  0.3177264610790971  0.3253183188837312   T   T   T
  0.2309384567227823  0.3048221943952214  0.2043395507647716   T   T   T
  0.9386167815503867  0.6861030565139785  0.1646015268977834   T   T   T
  0.9597505125631258  0.6510589621941421  0.4919865615379138   T   T   T
  0.8976023460612979  0.6381516595619985  0.3710118614814775   T   T   T
  0.6052781578859623  0.0194312582089964  0.3312714294580417   T   T   T
  0.6264181889369169  0.9843926605346738  0.1586554022519877   T   T   T
  0.5642693087740867  0.9714798603747852  0.0376768621641403   T   T   T
  0.2719460001977581  0.3527659169987274  0.4979320294837493   T   T   T
  0.3177260463202316  0.0246416025871028  0.1746782468000490   T   T   T
  0.3048249031293651  0.0738865510079236  0.2956618589340678   T   T   T
  0.6861034517712596  0.7474874341689315  0.3353987361353603   T   T   T
  0.9843939087810938  0.3579740381857448  0.3413449800549557   T   T   T
  0.9714836825594801  0.4072140631070198  0.4623259483332802   T   T   T
  0.3527699825664712  0.0808250847034060  0.0020687176904346   T   T   T
  0.6510602821763669  0.6913058908888772  0.0080122558690263   T   T   T
  0.6381511083855642  0.7405457789556564  0.1289916870603207   T   T   T
  0.0194336905546137  0.4141544252343436  0.1687306556421930   T   T   T
  0.9753569572927248  0.2930836888081743  0.1746778145053440   T   T   T
  0.9261193882106795  0.2309365795654941  0.2956561902079002   T   T   T
  0.2525171596449169  0.9386150570304679  0.3353952738343722   T   T   T
  0.6420265148109081  0.6264194876611100  0.3413462838268444   T   T   T
  0.5927881338487779  0.5642735614738115  0.4623272356276331   T   T   T
  0.9191806861579721  0.2719440852325761  0.0020666894536916   T   T   T
  0.3086935617326247  0.9597537421861375  0.0080138158405205   T   T   T
  0.2594554534288704  0.8976024348491265  0.1289829137370688   T   T   T
  0.5858459435964818  0.6052809031429618  0.1687328521875102   T   T   T
  0.7069153374919566  0.6822738596314508  0.1746823238239870   T   T   T
  0.7690620386724873  0.6951783620392433  0.2956629766037224   T   T   T
  0.0613834704757892  0.3138969931506068  0.3353986130241182   T   T   T
  0.3735830418564632  0.0156083077599334  0.3413453601423271   T   T   T
  0.4357309949098180  0.0285202347111948  0.4623243714651508   T   T   T
  0.7280540496554551  0.6472329984907716  0.0020694796195357   T   T   T
  0.0402494845425565  0.3489410904206167  0.0080134224294710   T   T   T
  0.1023976116539771  0.3618483943624042  0.1289882185642455   T   T   T
  0.3947184628769236  0.9805671481160516  0.1687303210872741   T   T   T
  0.6822740156662590  0.9753571731861825  0.8253219289477158   T   T   T
  0.6951751519131761  0.9261136052619108  0.7043379362960351   T   T   T
  0.3138955479816801  0.2525140415489915  0.6645992990494634   T   T   T
  0.3489406969199109  0.3086938921459392  0.9919871431953169   T   T   T
  0.3618489184830551  0.2594538807055500  0.8710072897443979   T   T   T
  0.9805663402063445  0.5858455866845347  0.8312693721691744   T   T   T
  0.0156060952027488  0.6420260048796820  0.6586549923690868   T   T   T
  0.0285163217408027  0.5927859163164584  0.5376740066991346   T   T   T
  0.6472300377159215  0.9191753046350541  0.9979319395670387   T   T   T
  0.0246430312060468  0.7069163189107144  0.8253222449763769   T   T   T
  0.0738806010351922  0.7690634193761170  0.7043437413969258   T   T   T
  0.7474850418872236  0.0613842482682614  0.6646015260475053   T   T   T
  0.6913068318317102  0.0402469632267781  0.9919854728015522   T   T   T
  0.7405445667634609  0.1023979245667448  0.8710144288361192   T   T   T
  0.4141541572319056  0.3947191561662180  0.8312667225328170   T   T   T
  0.3579729596959638  0.3735801914959467  0.6586535295863882   T   T   T
  0.4072120242331962  0.4357265139982047  0.5376727507695165   T   T   T
  0.0808196605338622  0.7280562939062349  0.9979330833360223   T   T   T
  0.2930852627619558  0.3177264610790971  0.8253183488837266   T   T   T
  0.2309384567227823  0.3048221943952214  0.7043395507647716   T   T   T
  0.9386167815503867  0.6861030565139785  0.6646015408977846   T   T   T
  0.9597505125631258  0.6510589621941421  0.9919865905379126   T   T   T
  0.8976023460612979  0.6381516595619985  0.8710118914814799   T   T   T
  0.6052781578859623  0.0194312582089964  0.8312713994580463   T   T   T
  0.6264181889369169  0.9843926605346738  0.6586554022519877   T   T   T
  0.5642693087740867  0.9714798603747852  0.5376768401641385   T   T   T
  0.2719460001977581  0.3527659169987274  0.9979320294837493   T   T   T
  0.3177260463202316  0.0246416025871028  0.6746782318000513   T   T   T
  0.3048249031293651  0.0738865510079236  0.7956618589340678   T   T   T
  0.6861034517712596  0.7474874341689315  0.8353987071353615   T   T   T
  0.9843939087810938  0.3579740381857448  0.8413449800549557   T   T   T
  0.9714836825594801  0.4072140631070198  0.9623259783332827   T   T   T
  0.3527699825664712  0.0808250847034060  0.5020687096904339   T   T   T
  0.6510602821763669  0.6913058908888772  0.5080122278690240   T   T   T
  0.6381511083855642  0.7405457789556564  0.6289916570603182   T   T   T
  0.0194336905546137  0.4141544252343436  0.6687306706421907   T   T   T
  0.9753569572927248  0.2930836888081743  0.6746777995053463   T   T   T
  0.9261193882106795  0.2309365795654941  0.7956561902079002   T   T   T
  0.2525171596449169  0.9386150570304679  0.8353952448343733   T   T   T
  0.6420265148109081  0.6264194876611100  0.8413462838268444   T   T   T
  0.5927881338487779  0.5642735614738115  0.9623272656276356   T   T   T
  0.9191806861579721  0.2719440852325761  0.5020666814536909   T   T   T
  0.3086935617326247  0.9597537421861375  0.5080137878405182   T   T   T
  0.2594554534288704  0.8976024348491265  0.6289828837370663   T   T   T
  0.5858459435964818  0.6052809031429618  0.6687328671875079   T   T   T
  0.7069153374919566  0.6822738596314508  0.6746823088239893   T   T   T
  0.7690620386724873  0.6951783620392433  0.7956629766037224   T   T   T
  0.0613834704757892  0.3138969931506068  0.8353985840241194   T   T   T
  0.3735830418564632  0.0156083077599334  0.8413453601423271   T   T   T
  0.4357309949098180  0.0285202347111948  0.9623244014651533   T   T   T
  0.7280540496554551  0.6472329984907716  0.5020694716195351   T   T   T
  0.0402494845425565  0.3489410904206167  0.5080133944294687   T   T   T
  0.1023976116539771  0.3618483943624042  0.6289881885642430   T   T   T
  0.3947184628769236  0.9805671481160516  0.6687303360872718   T   T   T
  0.6840402534620651  0.9304461202761871  0.2913829062592512   T   T   T
  0.6737155476520016  0.8809499452920448  0.3576907737932444   T   T   T
  0.3240951084952073  0.2117881357829390  0.1222591149680170   T   T   T
  0.3177953113070657  0.1644480812201650  0.1781263007226244   T   T   T
  0.8598707669219294  0.5451121876882823  0.2417745562446143   T   T   T
  0.5523166413982565  0.8874012553680259  0.3308475512932674   T   T   T
  0.3507088988978353  0.2637861242721939  0.4580512601160294   T   T   T
  0.3403823763088951  0.2142872249869541  0.0243591516994783   T   T   T
  0.9907645993934082  0.5451203916535263  0.2889271441731083   T   T   T
  0.9844633430587564  0.4977787560731457  0.3447918066613411   T   T   T
  0.5265380812224194  0.8784437431877024  0.4084305557651930   T   T   T
  0.2189876140409552  0.2207376226130862  0.4975117799175024   T   T   T
  0.0173754211152328  0.5971159690237329  0.1247165610949139   T   T   T
  0.0070493697529130  0.5476196978570940  0.1910246133400335   T   T   T
  0.6574305810976568  0.8784517806701118  0.4555929034112651   T   T   T
  0.6511295337579028  0.8311106324040907  0.0114562935048355   T   T   T
  0.1932054229623716  0.2117810231848622  0.0751072722439119   T   T   T
  0.8856529315593562  0.5540697419089540  0.1641784190623667   T   T   T
  0.0695507310306027  0.7535938942688176  0.2913827983440740   T   T   T
  0.1190470038336215  0.7927650172256975  0.3576897315817860   T   T   T
  0.7882089448474758  0.1123063381700149  0.1222602103728292   T   T   T
  0.8355520465548594  0.1533493431853401  0.1781252590926883   T   T   T
  0.4548875334442215  0.3147593087456144  0.2417750893082058   T   T   T
  0.1125977793025186  0.6649153489286235  0.3308485557412126   T   T   T
  0.7362109074290757  0.0869229374267064  0.4580456399510453   T   T   T
  0.7857120493686054  0.1260952384313043  0.0243573098834702   T   T   T
  0.4548787168742265  0.4456426390268433  0.2889263353915297   T   T   T
  0.5022200181085523  0.4866830315935786  0.3447918017266502   T   T   T
  0.1215541644142561  0.6480944770713393  0.4084323914416856   T   T   T
  0.7792645098236690  0.9982490593921653  0.4975128399413364   T   T   T
  0.4028826040472993  0.4202575597781362  0.1247145420104872   T   T   T
  0.4523812378515686  0.4594293569959689  0.1910238552928760   T   T   T
  0.1215451084834172  0.7789785052595661  0.4555947268032838   T   T   T
  0.1688880647927959  0.8200190729385639  0.0114574584632336   T   T   T
  0.7882206698880410  0.9814244381838222  0.0751055226764592   T   T   T
  0.4459302695573726  0.3315831703384404  0.1641773365850057   T   T   T
  0.2464051381606467  0.3159581334376398  0.2913780179490146   T   T   T
  0.2072350414307067  0.3262828834977682  0.3576897292792225   T   T   T
  0.8876941552254891  0.6759049514646804  0.1222620571578688   T   T   T
  0.8466506054762704  0.6822037261807949  0.1781265133174088   T   T   T
  0.6852410974354939  0.1401282220958109  0.2417752776312483   T   T   T
  0.3350847435737307  0.4476812133750627  0.3308466666714622   T   T   T
  0.9130760737605357  0.6492885017181251  0.4580453970308227   T   T   T
  0.8739052965665550  0.6596191894815959  0.0243579189188097   T   T   T
  0.5543564255772395  0.0092339603786940  0.2889284039465139   T   T   T
  0.5133157332475946  0.0155358310527944  0.3447917317669393   T   T   T
  0.3519059412101981  0.4734589552447801  0.4084308544799526   T   T   T
  0.0017509272267304  0.7810164191446916  0.4975124831249005   T   T   T
  0.5797392995965254  0.9826213752399795  0.1247170018237327   T   T   T
  0.5405695114979778  0.9929495873465015  0.1910256966629902   T   T   T
  0.2210207729276661  0.3425666551493194  0.4555916738848822   T   T   T
  0.1799823555499671  0.3488694788979814  0.0114557712281567   T   T   T
  0.0185756243548525  0.8067979143413950  0.0751042069261985   T   T   T
  0.6684172351953777  0.1143464553036608  0.1641785287493107   T   T   T
  0.3159595936330390  0.0695536365394105  0.2086182308042765   T   T   T
  0.3262847365874038  0.1190500358521547  0.1423088753082524   T   T   T
  0.6759043552110668  0.7882114934312625  0.3777400319528894   T   T   T
  0.6822045071704963  0.8355520881449578  0.3218738213557231   T   T   T
  0.1401292051664527  0.4548878133358727  0.2582254727933204   T   T   T
  0.4476833064731807  0.1125986930239975  0.1691524920654430   T   T   T
  0.9826245846793995  0.4028840363802004  0.3752834482857068   T   T   T
  0.9929505982943283  0.4523802981671849  0.3089753763368250   T   T   T
  0.3425693969771615  0.1215480142731238  0.0444073878311144   T   T   T
  0.3488704604238890  0.1688897474477713  0.4885438169451746   T   T   T
  0.8067959655620456  0.7882207985522953  0.4248959509778700   T   T   T
  0.1143470545675527  0.4459302636476110  0.3358215337115951   T   T   T
  0.6492909755209482  0.7362151721378822  0.0419497089816545   T   T   T
  0.6596176852864986  0.7857126242165862  0.4756410238668494   T   T   T
  0.0092354225216056  0.4548795756702546  0.2110728694754158   T   T   T
  0.0155366633827825  0.5022212150912466  0.1552081948893616   T   T   T
  0.4734619296449978  0.1215562064316202  0.0915692699021307   T   T   T
  0.7810150608519209  0.7792647824883190  0.0024878431064437   T   T   T
  0.9304493162062499  0.2464061223917540  0.2086172264215804   T   T   T
  0.8809528812559577  0.2072349826242927  0.1423099792611282   T   T   T
  0.2117909599553300  0.8876930459642551  0.3777405153466660   T   T   T
  0.1644478961845834  0.8466507117319111  0.3218746829372137   T   T   T
  0.5451123366916093  0.6852406042356165  0.2582251323345020   T   T   T
  0.8874022018600698  0.3350846537406937  0.1691515186263715   T   T   T
  0.5971169495106068  0.5797422126973402  0.3752848455795288   T   T   T
  0.5476188117543899  0.5405705799434273  0.3089764424597874   T   T   T
  0.8784547215268859  0.2210213410046578  0.0444051693161001   T   T   T
  0.8311122619992020  0.1799813455394101  0.4885426369105659   T   T   T
  0.2117794373860562  0.0185756443259208  0.4248941050468105   T   T   T
  0.5540695904802817  0.6684168623975069  0.3358225593171156   T   T   T
  0.2637889131218927  0.9130764771594855  0.0419571811648680   T   T   T
  0.2142875863583811  0.8739044437144230  0.4756422833471987   T   T   T
  0.5451211887387188  0.5543573262709600  0.2110736730261706   T   T   T
  0.4977799183796847  0.5133169532026258  0.1552081515118786   T   T   T
  0.8784458220830729  0.3519055735466381  0.0915675133490268   T   T   T
  0.2207356528971189  0.0017509462956440  0.0024871787379581   T   T   T
  0.7535942729050475  0.6840413757459132  0.2086192788567018   T   T   T
  0.7927646409693025  0.6737170196121909  0.1423108594543052   T   T   T
  0.1123057568152532  0.3240950503362825  0.3777380688615324   T   T   T
  0.1533497040131735  0.3177964042297958  0.3218735395521790   T   T   T
  0.3147580453954504  0.8598726388661717  0.2582198703000742   T   T   T
  0.6649152714272475  0.5523185663215529  0.1691533130901917   T   T   T
  0.4202591240865488  0.0173785051205755  0.3752822105790372   T   T   T
  0.4594312000766294  0.0070507772611066  0.3089741300627296   T   T   T
  0.7789788699594808  0.6574327655312686  0.0444079392702008   T   T   T
  0.8200177732971738  0.6511306625298019  0.4885442148216015   T   T   T
  0.9814243901442694  0.1932020618404451  0.4248958098240720   T   T   T
  0.3315838070629553  0.8856571514010199  0.3358235914723977   T   T   T
  0.0869239548162355  0.3507115231394380  0.0419545165599402   T   T   T
  0.1260946792017990  0.3403808219961206  0.4756422117076085   T   T   T
  0.4456438766302568  0.9907654253681741  0.2110727508294090   T   T   T
  0.4866835294489178  0.9844640589765774  0.1552081046596925   T   T   T
  0.6480941379752778  0.5265409782139585  0.0915695372602130   T   T   T
  0.9982490607713430  0.2189835672542344  0.0024874736038853   T   T   T
  0.6840402534620651  0.9304461202761871  0.7913829362592537   T   T   T
  0.6737155476520016  0.8809499452920448  0.8576907737932444   T   T   T
  0.3240951084952073  0.2117881357829390  0.6222591369680188   T   T   T
  0.3177953113070657  0.1644480812201650  0.6781263157226221   T   T   T
  0.8598707669219294  0.5451121876882823  0.7417745422446202   T   T   T
  0.5523166413982565  0.8874012553680259  0.8308475512932745   T   T   T
  0.3507088988978353  0.2637861242721939  0.9580512301160340   T   T   T
  0.3403823763088951  0.2142872249869541  0.5243591256994762   T   T   T
  0.9907645993934082  0.5451203916535263  0.7889271141731129   T   T   T
  0.9844633430587564  0.4977787560731457  0.8447917766613458   T   T   T
  0.5265380812224194  0.8784437431877024  0.9084305557652002   T   T   T
  0.2189876140409552  0.2207376226130862  0.9975118089175012   T   T   T
  0.0173754211152328  0.5971159690237329  0.6247165610949068   T   T   T
  0.0070493697529130  0.5476196978570940  0.6910246133400335   T   T   T
  0.6574305810976568  0.8784517806701118  0.9555929034112651   T   T   T
  0.6511295337579028  0.8311106324040907  0.5114562995048360   T   T   T
  0.1932054229623716  0.2117810231848622  0.5751072952439102   T   T   T
  0.8856529315593562  0.5540697419089540  0.6641784040623691   T   T   T
  0.0695507310306027  0.7535938942688176  0.7913828283440765   T   T   T
  0.1190470038336215  0.7927650172256975  0.8576897315817860   T   T   T
  0.7882089448474758  0.1123063381700149  0.6222602323728310   T   T   T
  0.8355520465548594  0.1533493431853401  0.6781252740926860   T   T   T
  0.4548875334442215  0.3147593087456144  0.7417750753082117   T   T   T
  0.1125977793025186  0.6649153489286235  0.8308485557412126   T   T   T
  0.7362109074290757  0.0869229374267064  0.9580456099510499   T   T   T
  0.7857120493686054  0.1260952384313043  0.5243572838834680   T   T   T
  0.4548787168742265  0.4456426390268433  0.7889263053915343   T   T   T
  0.5022200181085523  0.4866830315935786  0.8447917717266549   T   T   T
  0.1215541644142561  0.6480944770713393  0.9084323914416856   T   T   T
  0.7792645098236690  0.9982490593921653  0.9975128689413353   T   T   T
  0.4028826040472993  0.4202575597781362  0.6247145420104729   T   T   T
  0.4523812378515686  0.4594293569959689  0.6910238552928760   T   T   T
  0.1215451084834172  0.7789785052595661  0.9555947268032838   T   T   T
  0.1688880647927959  0.8200190729385639  0.5114574644632341   T   T   T
  0.7882206698880410  0.9814244381838222  0.5751055456764576   T   T   T
  0.4459302695573726  0.3315831703384404  0.6641773215850080   T   T   T
  0.2464051381606467  0.3159581334376398  0.7913780479490171   T   T   T
  0.2072350414307067  0.3262828834977682  0.8576897292792225   T   T   T
  0.8876941552254891  0.6759049514646804  0.6222620791578706   T   T   T
  0.8466506054762704  0.6822037261807949  0.6781265283174065   T   T   T
  0.6852410974354939  0.1401282220958109  0.7417752636312542   T   T   T
  0.3350847435737307  0.4476812133750627  0.8308466666714622   T   T   T
  0.9130760737605357  0.6492885017181251  0.9580453670308273   T   T   T
  0.8739052965665550  0.6596191894815959  0.5243578929188075   T   T   T
  0.5543564255772395  0.0092339603786940  0.7889283739465185   T   T   T
  0.5133157332475946  0.0155358310527944  0.8447917017669440   T   T   T
  0.3519059412101981  0.4734589552447801  0.9084308544799526   T   T   T
  0.0017509272267304  0.7810164191446916  0.9975125121248993   T   T   T
  0.5797392995965254  0.9826213752399795  0.6247170018237256   T   T   T
  0.5405695114979778  0.9929495873465015  0.6910256966629902   T   T   T
  0.2210207729276661  0.3425666551493194  0.9555916738848822   T   T   T
  0.1799823555499671  0.3488694788979814  0.5114557772281572   T   T   T
  0.0185756243548525  0.8067979143413950  0.5751042299261968   T   T   T
  0.6684172351953777  0.1143464553036608  0.6641785137493130   T   T   T
  0.3159595936330390  0.0695536365394105  0.7086182158042718   T   T   T
  0.3262847365874038  0.1190500358521547  0.6423088603082547   T   T   T
  0.6759043552110668  0.7882114934312625  0.8777400019528869   T   T   T
  0.6822045071704963  0.8355520881449578  0.8218737913557277   T   T   T
  0.1401292051664527  0.4548878133358727  0.7582255017933193   T   T   T
  0.4476833064731807  0.1125986930239975  0.6691524920654359   T   T   T
  0.9826245846793995  0.4028840363802004  0.8752834482857139   T   T   T
  0.9929505982943283  0.4523802981671849  0.8089753763368250   T   T   T
  0.3425693969771615  0.1215480142731238  0.5444073878311144   T   T   T
  0.3488704604238890  0.1688897474477713  0.9885438169451746   T   T   T
  0.8067959655620456  0.7882207985522953  0.9248959209778675   T   T   T
  0.1143470545675527  0.4459302636476110  0.8358215637115904   T   T   T
  0.6492909755209482  0.7362151721378822  0.5419497349816496   T   T   T
  0.6596176852864986  0.7857126242165862  0.9756410538668518   T   T   T
  0.0092354225216056  0.4548795756702546  0.7110728994754112   T   T   T
  0.0155366633827825  0.5022212150912466  0.6552082098893592   T   T   T
  0.4734619296449978  0.1215562064316202  0.5915692779021242   T   T   T
  0.7810150608519209  0.7792647824883190  0.5024878261064387   T   T   T
  0.9304493162062499  0.2464061223917540  0.7086172114215756   T   T   T
  0.8809528812559577  0.2072349826242927  0.6423099642611305   T   T   T
  0.2117909599553300  0.8876930459642551  0.8777404853466635   T   T   T
  0.1644478961845834  0.8466507117319111  0.8218746529372183   T   T   T
  0.5451123366916093  0.6852406042356165  0.7582251613345008   T   T   T
  0.8874022018600698  0.3350846537406937  0.6691515186263715   T   T   T
  0.5971169495106068  0.5797422126973402  0.8752848455795430   T   T   T
  0.5476188117543899  0.5405705799434273  0.8089764424597874   T   T   T
  0.8784547215268859  0.2210213410046578  0.5444051693161001   T   T   T
  0.8311122619992020  0.1799813455394101  0.9885426369105659   T   T   T
  0.2117794373860562  0.0185756443259208  0.9248940750468080   T   T   T
  0.5540695904802817  0.6684168623975069  0.8358225893171110   T   T   T
  0.2637889131218927  0.9130764771594855  0.5419572071648631   T   T   T
  0.2142875863583811  0.8739044437144230  0.9756423133472012   T   T   T
  0.5451211887387188  0.5543573262709600  0.7110737030261660   T   T   T
  0.4977799183796847  0.5133169532026258  0.6552081665118763   T   T   T
  0.8784458220830729  0.3519055735466381  0.5915675213490275   T   T   T
  0.2207356528971189  0.0017509462956440  0.5024871617379603   T   T   T
  0.7535942729050475  0.6840413757459132  0.7086192638566970   T   T   T
  0.7927646409693025  0.6737170196121909  0.6423108444543075   T   T   T
  0.1123057568152532  0.3240950503362825  0.8777380388615299   T   T   T
  0.1533497040131735  0.3177964042297958  0.8218735095521836   T   T   T
  0.3147580453954504  0.8598726388661717  0.7582198993000731   T   T   T
  0.6649152714272475  0.5523185663215529  0.6691533130901917   T   T   T
  0.4202591240865488  0.0173785051205755  0.8752822105790443   T   T   T
  0.4594312000766294  0.0070507772611066  0.8089741300627296   T   T   T
  0.7789788699594808  0.6574327655312686  0.5444079392702008   T   T   T
  0.8200177732971738  0.6511306625298019  0.9885442148216015   T   T   T
  0.9814243901442694  0.1932020618404451  0.9248957798240696   T   T   T
  0.3315838070629553  0.8856571514010199  0.8358236214723931   T   T   T
  0.0869239548162355  0.3507115231394380  0.5419545425599352   T   T   T
  0.1260946792017990  0.3403808219961206  0.9756422417076109   T   T   T
  0.4456438766302568  0.9907654253681741  0.7110727808294044   T   T   T
  0.4866835294489178  0.9844640589765774  0.6552081196596902   T   T   T
  0.6480941379752778  0.5265409782139585  0.5915695452602137   T   T   T
  0.9982490607713430  0.2189835672542344  0.5024874566038875   T   T   T
  0.3057818406646575  0.1632844667103157  0.2525377192082274   T   T   T
  0.1624551140463666  0.1951866219194116  0.1333338148554688   T   T   T
  0.5646118537439833  0.8860497086557331  0.2582059147861386   T   T   T
  0.9724504786154711  0.4966144947788038  0.4192060459698723   T   T   T
  0.8291249068179170  0.5285224371285082  0.3000047823083563   T   T   T
  0.2312777066864342  0.2193796575687514  0.4248762599315938   T   T   T
  0.6391164345561222  0.8299481241017830  0.0858712355380717   T   T   T
  0.4957902985319151  0.8618529069854759  0.4666691711691797   T   T   T
  0.8979451299043504  0.5527143073552807  0.0915449265507888   T   T   T
  0.8367164228412989  0.1424990987821459  0.2525390944290393   T   T   T
  0.8048130722920988  0.9672676526669406  0.1333340296237040   T   T   T
  0.1139512269663001  0.6785619129240246  0.2582068066049743   T   T   T
  0.5033841949402103  0.4758335496731547  0.4192053463613945   T   T   T
  0.4714784127154630  0.3006042595096048  0.3000042796206301   T   T   T
  0.7806196154808021  0.0118973753735645  0.4248774545071115   T   T   T
  0.1700526333731958  0.8091703470597551  0.0858744431000318   T   T   T
  0.1381450211250410  0.6339364483888019  0.4666687215692846   T   T   T
  0.4472857828544861  0.3452293368322970  0.0915433394372300   T   T   T
  0.8575018285728575  0.6942175276911229  0.2525412174386332   T   T   T
  0.0327324313259894  0.8375452826912166  0.1333358400036531   T   T   T
  0.3214365851115843  0.4353870616146125  0.2582054582325384   T   T   T
  0.5241648997800965  0.0275482304857562  0.4192058627817374   T   T   T
  0.6993971151316956  0.1708734179451099  0.3000065476299341   T   T   T
  0.9881035155909075  0.7687223096314995  0.4248765719242868   T   T   T
  0.1908309103558921  0.3608824882746404  0.0858699085501300   T   T   T
  0.3660617516368418  0.5042095337490693  0.4666652147702024   T   T   T
  0.6547711105210539  0.1020554541989540  0.0915440842746875   T   T   T
  0.6942181038890993  0.8367155309919880  0.2474622336866048   T   T   T
  0.8375447302948658  0.8048131326757613  0.3666658548905914   T   T   T
  0.4353881097355199  0.1139502281448301  0.2417941186952888   T   T   T
  0.3608835018608971  0.1700518782347729  0.4141287881766473   T   T   T
  0.5042097095192517  0.1381470984808217  0.0333308274205351   T   T   T
  0.1020548513541613  0.4472856889420100  0.4084550614800904   T   T   T
  0.0275495417330660  0.5033855076288560  0.0807939634841759   T   T   T
  0.1708751132756419  0.4714775584362911  0.1999952234404674   T   T   T
  0.7687217817574776  0.7806199673164969  0.0751237119900310   T   T   T
  0.1632836782124656  0.8575008767285794  0.2474608859443208   T   T   T
  0.1951868688476068  0.0327323437017597  0.3666660128880181   T   T   T
  0.8860487684780338  0.3214380989088141  0.2417931823253952   T   T   T
  0.8299474174628330  0.1908296765859632  0.4141255585039261   T   T   T
  0.8618549970685550  0.3660635939479988  0.0333312898469416   T   T   T
  0.5527141927557437  0.6547706948037586  0.4084566021781555   T   T   T
  0.4966157863148766  0.5241664364492991  0.0807946491317963   T   T   T
  0.5285215937275822  0.6993957771700536  0.1999957222071913   T   T   T
  0.2193803737345448  0.9881025827269454  0.0751225958408526   T   T   T
  0.1424982131934840  0.3057825087874093  0.2474587832657207   T   T   T