   Fe    O    C    H                    
   1.00000000000000     
    26.3003965936446953   -0.0004582205528192    0.0001241057855118
   -13.1505951223941242   22.7772128880233922    0.0002003011730257
     0.0000691991956686    0.0001583249811816   13.8261887657419802
   Fe   O    C    H 
    36   108   144    36
Selective dynamics
Direct
  0.3618655437672587  0.3131127764268768  0.2607358467581591   T   T   T
  0.0287374773331592  0.6464341443169559  0.4273297821576136   T   T   T
  0.6952320268568570  0.9795117570828182  0.0938708760435389   T   T   T
  0.6868956809848825  0.0487565617691601  0.2607342052434376   T   T   T
  0.3535577446956992  0.3823002971443330  0.4273298038576101   T   T   T
  0.0204896061951914  0.7157150923150510  0.0938838457160784   T   T   T
  0.9512430547125774  0.6381286096944194  0.2607425827535934   T   T   T
  0.6176968963988969  0.9712550590814857  0.4273294534956378   T   T   T
  0.2842810092186454  0.3047663521474746  0.0938834061038847   T   T   T
  0.6381290217037190  0.6868845112310140  0.2392595632917747   T   T   T
  0.3047703147737622  0.0204803950241441  0.4061200296434180   T   T   T
  0.9712612648517691  0.3535620316588108  0.0726736856500523   T   T   T
  0.3131176977501653  0.9512487697666003  0.2392529154330418   T   T   T
  0.9795080112592771  0.2842814714492619  0.4061149913092663   T   T   T
  0.6464434736338092  0.6177033274957466  0.0726649000880570   T   T   T
  0.0487515237885319  0.3618706043216235  0.2392501979365278   T   T   T
  0.7157188644739563  0.6952324721226759  0.4061165448692137   T   T   T
  0.3823040907772182  0.0287463116190025  0.0726632606792137   T   T   T
  0.3618655437672587  0.3131127764268768  0.7607358467581591   T   T   T
  0.0287374773331592  0.6464341443169559  0.9273297821576136   T   T   T
  0.6952320268568570  0.9795117570828182  0.5938708540435371   T   T   T
  0.6868956809848825  0.0487565617691601  0.7607342052434376   T   T   T
  0.3535577446956992  0.3823002971443330  0.9273298038576101   T   T   T
  0.0204896061951914  0.7157150923150510  0.5938838237160766   T   T   T
  0.9512430547125774  0.6381286096944194  0.7607425827535934   T   T   T
  0.6176968963988969  0.9712550590814857  0.9273294534956378   T   T   T
  0.2842810092186454  0.3047663521474746  0.5938833841038829   T   T   T
  0.6381290217037190  0.6868845112310140  0.7392595782917724   T   T   T
  0.3047703147737622  0.0204803950241441  0.9061200596434205   T   T   T
  0.9712612648517691  0.3535620316588108  0.5726736786500553   T   T   T
  0.3131176977501653  0.9512487697666003  0.7392529304330466   T   T   T
  0.9795080112592771  0.2842814714492619  0.9061150213092688   T   T   T
  0.6464434736338092  0.6177033274957466  0.5726648930880600   T   T   T
  0.0487515237885319  0.3618706043216235  0.7392502129365326   T   T   T
  0.7157188644739563  0.6952324721226759  0.9061165748692162   T   T   T
  0.3823040907772182  0.0287463116190025  0.5726632536792167   T   T   T
  0.0415811397719352  0.6986790775705387  0.3079276226430920   T   T   T
  0.0753243026404888  0.7707727982531978  0.1976193112186522   T   T   T
  0.7514331489643027  0.0571159031008719  0.1599496748928289   T   T   T
  0.7079354783045915  0.0318410243054501  0.4744908387597988   T   T   T
  0.7420422072299004  0.1039625435842382  0.3641770218910594   T   T   T
  0.4182394599223755  0.3905826465027928  0.3265765697915057   T   T   T
  0.3743636357467679  0.3654770725722614  0.1414139886686954   T   T   T
  0.4088351152589382  0.4373332345421801  0.0307010962720113   T   T   T
  0.0850241754755032  0.7240761417790225  0.4932067640518554   T   T   T
  0.3013030324563033  0.3428829246523719  0.3079292802756299   T   T   T
  0.2292274158214624  0.3045624322304121  0.1976041453551787   T   T   T
  0.9428855682511070  0.6943159684228632  0.1599417654214363   T   T   T
  0.9681632511822329  0.6760753358974299  0.4745018443231501   T   T   T
  0.8960342951013232  0.6380571683034333  0.3641830724049129   T   T   T
  0.6094322092653854  0.0276660180771700  0.3265767280403793   T   T   T
  0.6345323820593691  0.0088993675487217  0.1413933628293407   T   T   T
  0.5626520971188285  0.9714784967305690  0.0307137846657213   T   T   T
  0.2759079154365907  0.3609443629432363  0.4931953797493733   T   T   T
  0.6571084934501172  0.9584190186925170  0.3079225798835097   T   T   T
  0.6954403202333239  0.9246758485502369  0.1975959290650025   T   T   T
  0.3056833947771693  0.2485697791138506  0.1599589717297079   T   T   T
  0.3239255282675160  0.2920824027766997  0.4745097060342758   T   T   T
  0.3619503655206842  0.2579877901090555  0.3641917063483362   T   T   T
  0.9723295850360003  0.5817505874227962  0.3265763241239341   T   T   T
  0.9910957256273818  0.6256284613219663  0.1414154831404062   T   T   T
  0.0285003283618366  0.5911676434540851  0.0307091634647492   T   T   T
  0.6390383719479260  0.9149576220700339  0.4931866765180928   T   T   T
  0.9584065817477381  0.3013178661830409  0.1920850875415709   T   T   T
  0.9246751956515027  0.2292312939349728  0.3023910063951831   T   T   T
  0.2485700055925619  0.9428822089974958  0.3400477751126658   T   T   T
  0.6256349485276402  0.6345274499577940  0.3585974597658605   T   T   T
  0.5911680482880470  0.5626635635119115  0.4692906387862195   T   T   T
  0.9149731138028088  0.2759178324516256  0.0068076169430000   T   T   T
  0.2921053386823118  0.9681331840545084  0.0254714616934564   T   T   T
  0.2579904944495937  0.8960299322225680  0.1358169044308397   T   T   T
  0.5817610263740107  0.6094250421180689  0.1734226425434002   T   T   T
  0.6986859469177205  0.6571020840984403  0.1920711745436634   T   T   T
  0.7707707409847089  0.6954479326354246  0.3023978365243565   T   T   T
  0.0571104462068703  0.3056812470500390  0.3400559970824872   T   T   T
  0.3654891050417390  0.9911409821491191  0.3585656857541011   T   T   T
  0.4373360407350972  0.0284890515808769  0.4693067378192524   T   T   T
  0.7240853115900237  0.6390456366405672  0.0068057617522115   T   T   T
  0.0318327807626559  0.3239169418789842  0.0255020500846754   T   T   T
  0.1039552069152947  0.3619338590821073  0.1358139563002112   T   T   T
  0.3905955472564528  0.9723553964439731  0.1734309369258042   T   T   T
  0.3428731443619739  0.0415700713995903  0.1920534514621153   T   T   T
  0.3045379859485635  0.0753095380426245  0.3023860686159665   T   T   T
  0.6942990918440159  0.7514229574622178  0.3400423696147215   T   T   T
  0.0088845726217031  0.3743560105871140  0.3585740651588480   T   T   T
  0.9715245833944479  0.4088447354208355  0.4693070312828240   T   T   T
  0.3609369950911088  0.0850248574258501  0.0067988851848853   T   T   T
  0.6761090657117705  0.7079458148813345  0.0255043025682795   T   T   T
  0.6380693060134774  0.7420255167627516  0.1358125582435505   T   T   T
  0.0276657583177169  0.4182512414772219  0.1734210231389923   T   T   T
  0.0415811397719352  0.6986790775705387  0.8079276226430920   T   T   T
  0.0753243026404888  0.7707727982531978  0.6976193262186499   T   T   T
  0.7514331489643027  0.0571159031008719  0.6599496898928265   T   T   T
  0.7079354783045915  0.0318410243054501  0.9744908687598013   T   T   T
  0.7420422072299004  0.1039625435842382  0.8641770218910523   T   T   T
  0.4182394599223755  0.3905826465027928  0.8265765407914998   T   T   T
  0.3743636357467679  0.3654770725722614  0.6414139736686977   T   T   T
  0.4088351152589382  0.4373332345421801  0.5307010922720110   T   T   T
  0.0850241754755032  0.7240761417790225  0.9932067640518554   T   T   T
  0.3013030324563033  0.3428829246523719  0.8079292802756299   T   T   T
  0.2292274158214624  0.3045624322304121  0.6976041603551764   T   T   T
  0.9428855682511070  0.6943159684228632  0.6599417804214340   T   T   T
  0.9681632511822329  0.6760753358974299  0.9745018743231455   T   T   T
  0.8960342951013232  0.6380571683034333  0.8641830724049058   T   T   T
  0.6094322092653854  0.0276660180771700  0.8265766990403733   T   T   T
  0.6345323820593691  0.0088993675487217  0.6413933478293430   T   T   T
  0.5626520971188285  0.9714784967305690  0.5307137806657209   T   T   T
  0.2759079154365907  0.3609443629432363  0.9931953797493733   T   T   T
  0.6571084934501172  0.9584190186925170  0.8079225798835097   T   T   T
  0.6954403202333239  0.9246758485502369  0.6975959440650001   T   T   T
  0.3056833947771693  0.2485697791138506  0.6599589867297055   T   T   T
  0.3239255282675160  0.2920824027766997  0.9745097360342712   T   T   T
  0.3619503655206842  0.2579877901090555  0.8641917063483362   T   T   T
  0.9723295850360003  0.5817505874227962  0.8265762951239211   T   T   T
  0.9910957256273818  0.6256284613219663  0.6414154681404085   T   T   T
  0.0285003283618366  0.5911676434540851  0.5307091594647488   T   T   T
  0.6390383719479260  0.9149576220700339  0.9931866765180928   T   T   T
  0.9584065817477381  0.3013178661830409  0.6920850875415709   T   T   T
  0.9246751956515027  0.2292312939349728  0.8023909763951877   T   T   T
  0.2485700055925619  0.9428822089974958  0.8400477451126633   T   T   T
  0.6256349485276402  0.6345274499577940  0.8585974597658605   T   T   T
  0.5911680482880470  0.5626635635119115  0.9692906387862195   T   T   T
  0.9149731138028088  0.2759178324516256  0.5068076239430042   T   T   T
  0.2921053386823118  0.9681331840545084  0.5254714396934617   T   T   T
  0.2579904944495937  0.8960299322225680  0.6358169194308445   T   T   T
  0.5817610263740107  0.6094250421180689  0.6734226575434050   T   T   T
  0.6986859469177205  0.6571020840984403  0.6920711745436634   T   T   T
  0.7707707409847089  0.6954479326354246  0.8023978065243611   T   T   T
  0.0571104462068703  0.3056812470500390  0.8400559670824848   T   T   T
  0.3654891050417390  0.9911409821491191  0.8585656857541011   T   T   T
  0.4373360407350972  0.0284890515808769  0.9693067378192524   T   T   T
  0.7240853115900237  0.6390456366405672  0.5068057687522156   T   T   T
  0.0318327807626559  0.3239169418789842  0.5255020280846807   T   T   T
  0.1039552069152947  0.3619338590821073  0.6358139713002160   T   T   T
  0.3905955472564528  0.9723553964439731  0.6734309519258090   T   T   T
  0.3428731443619739  0.0415700713995903  0.6920534514621153   T   T   T
  0.3045379859485635  0.0753095380426245  0.8023860386159711   T   T   T
  0.6942990918440159  0.7514229574622178  0.8400423396147190   T   T   T
  0.0088845726217031  0.3743560105871140  0.8585740651588480   T   T   T
  0.9715245833944479  0.4088447354208355  0.9693070312828240   T   T   T
  0.3609369950911088  0.0850248574258501  0.5067988921848894   T   T   T
  0.6761090657117705  0.7079458148813345  0.5255042805682848   T   T   T
  0.6380693060134774  0.7420255167627516  0.6358125732435553   T   T   T
  0.0276657583177169  0.4182512414772219  0.6734210381389971   T   T   T
  0.0778050138449160  0.7525146860262382  0.2827736579042082   T   T   T
  0.1223500607233277  0.7923651165166135  0.3535223898400730   T   T   T
  0.7903938279725082  0.1095691813765711  0.1195254947625344   T   T   T
  0.8350185390048352  0.1514196976952746  0.1790123219056028   T   T   T
  0.7443158499839910  0.0856485710579236  0.4493911589716362   T   T   T
  0.7888334155280674  0.1253903381338191  0.0202806762811818   T   T   T
  0.4571570018948989  0.4430533851367002  0.2861044490056130   T   T   T
  0.5017883958894345  0.4849089839730993  0.3456084664120453   T   T   T
  0.4109799338181901  0.4191472959239135  0.1160705544526053   T   T   T
  0.4555585072314940  0.4588836957672200  0.1868429212986271   T   T   T
  0.1239457173766496  0.7765419826256803  0.4527602688309074   T   T   T
  0.1685450837964098  0.8184179628734398  0.0122486098190748   T   T   T
  0.2474738596029198  0.3252853282350330  0.2827695202617093   T   T   T
  0.2076297422456648  0.3299795649040576  0.3535194684608598   T   T   T
  0.8904337646346576  0.6808277885346641  0.1195203290718894   T   T   T
  0.8485883897514981  0.6836025678282596  0.1790043866090798   T   T   T
  0.9143577805977969  0.6586569974819412  0.4493895890852997   T   T   T
  0.8746111895171254  0.6634478148770739  0.0202720414847946   T   T   T
  0.5569589521897882  0.0141122914879475  0.2861133402688694   T   T   T
  0.5151063118873864  0.0168925942475795  0.3456134401041453   T   T   T
  0.5808545936460590  0.9918310683205220  0.1160669197823765   T   T   T
  0.5411224112282724  0.9966807339169392  0.1868466931855579   T   T   T
  0.2234466966224673  0.3473960613579052  0.4527456877307827   T   T   T
  0.1815672723291755  0.3501125471445334  0.0122423518484354   T   T   T
  0.6747147328628955  0.9221966267001207  0.2827617031167122   T   T   T
  0.6700166541520787  0.8776493860472598  0.3535102140225419   T   T   T
  0.3191740467646369  0.2096091854205469  0.1195238262724203   T   T   T
  0.3163913439692152  0.1649782053815301  0.1790144056083705   T   T   T
  0.3413486755575263  0.2557017253484517  0.4493974101580278   T   T   T
  0.3365566091055427  0.2111737229000923  0.0202730923853309   T   T   T
  0.9858865050763939  0.5428363054006766  0.2861119669092389   T   T   T
  0.9831053962520144  0.4982051510798016  0.3456129174734883   T   T   T
  0.0081584412602353  0.5890174400426886  0.1160758490795573   T   T   T
  0.0033189124789601  0.5444363211996830  0.1868499127505814   T   T   T
  0.6525899022890869  0.8760467087728614  0.4527410931713263   T   T   T
  0.6498782372580365  0.8314611722688383  0.0122385012911579   T   T   T
  0.9221882713504499  0.2474825719359615  0.2172348131538016   T   T   T
  0.8776478814779907  0.2076363308428455  0.1464863029074905   T   T   T
  0.2096080074945945  0.8904271599254656  0.3804807967495307   T   T   T
  0.1649802595431211  0.8485800936092787  0.3210007040990206   T   T   T
  0.5890210418769897  0.5808544159392639  0.3839266063822677   T   T   T
  0.5444397887018724  0.5411207919005676  0.3131551035549904   T   T   T
  0.8760523110811889  0.2234575541642627  0.0472543207639546   T   T   T
  0.8314542026625560  0.1815822767746553  0.4877666369975628   T   T   T
  0.2557133305400399  0.9143377538676987  0.0506008375619231   T   T   T
  0.2111714700604281  0.8746071960065862  0.4797238921596403   T   T   T
  0.5428410673421027  0.5569536258224304  0.2138927692929826   T   T   T
  0.4982077855824301  0.5150972332931403  0.1543909269528498   T   T   T
  0.7525195536798464  0.6747120216665863  0.2172365703319343   T   T   T
  0.7923671080771655  0.6700159272359230  0.1464841468433633   T   T   T
  0.1095576022406561  0.3191703744146537  0.3804843535914628   T   T   T
  0.1514094640752646  0.3163967668037202  0.3209983653536028   T   T   T
  0.4191532299805871  0.0081719488626888  0.3839265998436616   T   T   T
  0.4588951382962847  0.0033305442619707  0.3131556106964339   T   T   T
  0.7765482237273531  0.6525971889934752  0.0472489962439084   T   T   T
  0.8184286799000304  0.6498842983187672  0.4877518224008242   T   T   T
  0.0856403297416932  0.3413393226805610  0.0506052072927829   T   T   T
  0.1253788547774448  0.3365474328307201  0.4797321316109375   T   T   T
  0.4430671570890752  0.9859093981203060  0.2138943168228948   T   T   T
  0.4849156835762471  0.9831245511803672  0.1543918991836719   T   T   T
  0.3252713689527411  0.0777978575297809  0.2172269004210747   T   T   T
  0.3299714563285434  0.1223481828803585  0.1464885753225857   T   T   T
  0.6808206253868434  0.7903923967395556  0.3804758587000521   T   T   T
  0.6836018644634763  0.8350252443022157  0.3209847753604436   T   T   T
  0.9918419831909517  0.4109817427463867  0.3839255429476012   T   T   T
  0.9966762058710259  0.4555641362243961  0.3131540410177962   T   T   T
  0.3473921712435057  0.1239437699036685  0.0472456002985240   T   T   T
  0.3501169609170773  0.1685420780250837  0.4877569910740007   T   T   T
  0.6586689413954900  0.7443144942194877  0.0506050232874173   T   T   T
  0.6634475322308901  0.7888346311248142  0.4797292453738393   T   T   T
  0.0141068484948406  0.4571630677282954  0.2138880337347331   T   T   T
  0.0168886338811802  0.5017957382088056  0.1543903350689106   T   T   T
  0.0778050138449160  0.7525146860262382  0.7827736579042011   T   T   T
  0.1223500607233277  0.7923651165166135  0.8535223898400730   T   T   T
  0.7903938279725082  0.1095691813765711  0.6195254727625326   T   T   T
  0.8350185390048352  0.1514196976952746  0.6790123069055980   T   T   T
  0.7443158499839910  0.0856485710579236  0.9493911879716350   T   T   T
  0.7888334155280674  0.1253903381338191  0.5202806552811765   T   T   T
  0.4571570018948989  0.4430533851367002  0.7861044490056059   T   T   T
  0.5017883958894345  0.4849089839730993  0.8456084664120453   T   T   T
  0.4109799338181901  0.4191472959239135  0.6160705394526076   T   T   T
  0.4555585072314940  0.4588836957672200  0.6868429062986294   T   T   T
  0.1239457173766496  0.7765419826256803  0.9527602688309074   T   T   T
  0.1685450837964098  0.8184179628734398  0.5122486238190760   T   T   T
  0.2474738596029198  0.3252853282350330  0.7827695202617093   T   T   T
  0.2076297422456648  0.3299795649040576  0.8535194684608598   T   T   T
  0.8904337646346576  0.6808277885346641  0.6195203070718875   T   T   T
  0.8485883897514981  0.6836025678282596  0.6790043716090750   T   T   T
  0.9143577805977969  0.6586569974819412  0.9493896180852985   T   T   T
  0.8746111895171254  0.6634478148770739  0.5202720204847893   T   T   T
  0.5569589521897882  0.0141122914879475  0.7861133402688623   T   T   T
  0.5151063118873864  0.0168925942475795  0.8456134401041453   T   T   T
  0.5808545936460590  0.9918310683205220  0.6160669047823788   T   T   T
  0.5411224112282724  0.9966807339169392  0.6868466781855602   T   T   T
  0.2234466966224673  0.3473960613579052  0.9527456877307827   T   T   T
  0.1815672723291755  0.3501125471445334  0.5122423658484365   T   T   T
  0.6747147328628955  0.9221966267001207  0.7827617031167122   T   T   T
  0.6700166541520787  0.8776493860472598  0.8535102140225419   T   T   T
  0.3191740467646369  0.2096091854205469  0.6195238042724185   T   T   T
  0.3163913439692152  0.1649782053815301  0.6790143906083657   T   T   T
  0.3413486755575263  0.2557017253484517  0.9493974391580267   T   T   T
  0.3365566091055427  0.2111737229000923  0.5202730713853256   T   T   T
  0.9858865050763939  0.5428363054006766  0.7861119669092389   T   T   T
  0.9831053962520144  0.4982051510798016  0.8456129174734883   T   T   T
  0.0081584412602353  0.5890174400426886  0.6160758340795596   T   T   T
  0.0033189124789601  0.5444363211996830  0.6868498977505837   T   T   T
  0.6525899022890869  0.8760467087728614  0.9527410931713263   T   T   T
  0.6498782372580365  0.8314611722688383  0.5122385152911590   T   T   T
  0.9221882713504499  0.2474825719359615  0.7172347981537968   T   T   T
  0.8776478814779907  0.2076363308428455  0.6464862879074929   T   T   T
  0.2096080074945945  0.8904271599254656  0.8804808267495332   T   T   T
  0.1649802595431211  0.8485800936092787  0.8210007340990231   T   T   T
  0.5890210418769897  0.5808544159392639  0.8839266063822677   T   T   T
  0.5444397887018724  0.5411207919005676  0.8131551035549904   T   T   T
  0.8760523110811889  0.2234575541642627  0.5472543057639569   T   T   T
  0.8314542026625560  0.1815822767746553  0.9877666369975699   T   T   T
  0.2557133305400399  0.9143377538676987  0.5506008155619213   T   T   T
  0.2111714700604281  0.8746071960065862  0.9797239221596357   T   T   T
  0.5428410673421027  0.5569536258224304  0.7138927692929826   T   T   T
  0.4982077855824301  0.5150972332931403  0.6543909419528475   T   T   T
  0.7525195536798464  0.6747120216665863  0.7172365553319295   T   T   T
  0.7923671080771655  0.6700159272359230  0.6464841318433656   T   T   T
  0.1095576022406561  0.3191703744146537  0.8804843835914653   T   T   T
  0.1514094640752646  0.3163967668037202  0.8209983953536053   T   T   T
  0.4191532299805871  0.0081719488626888  0.8839265998436616   T   T   T
  0.4588951382962847  0.0033305442619707  0.8131556106964339   T   T   T
  0.7765482237273531  0.6525971889934752  0.5472489812439107   T   T   T
  0.8184286799000304  0.6498842983187672  0.9877518224008242   T   T   T
  0.0856403297416932  0.3413393226805610  0.5506051852927811   T   T   T
  0.1253788547774448  0.3365474328307201  0.9797321616109471   T   T   T
  0.4430671570890752  0.9859093981203060  0.7138943168228948   T   T   T
  0.4849156835762471  0.9831245511803672  0.6543919141836696   T   T   T
  0.3252713689527411  0.0777978575297809  0.7172268854210699   T   T   T
  0.3299714563285434  0.1223481828803585  0.6464885603225881   T   T   T
  0.6808206253868434  0.7903923967395556  0.8804758887000617   T   T   T
  0.6836018644634763  0.8350252443022157  0.8209848053604460   T   T   T
  0.9918419831909517  0.4109817427463867  0.8839255429476012   T   T   T
  0.9966762058710259  0.4555641362243961  0.8131540410177962   T   T   T
  0.3473921712435057  0.1239437699036685  0.5472455852985263   T   T   T
  0.3501169609170773  0.1685420780250837  0.9877569910740007   T   T   T
  0.6586689413954900  0.7443144942194877  0.5506050012874155   T   T   T
  0.6634475322308901  0.7888346311248142  0.9797292753738489   T   T   T
  0.0141068484948406  0.4571630677282954  0.7138880337347331   T   T   T
  0.0168886338811802  0.5017957382088056  0.6543903500689083   T   T   T
  0.8363919274765550  0.1397315456842421  0.2540826997923347   T   T   T
  0.5031461904818215  0.4731942025846863  0.4206346503218583   T   T   T
  0.1699587445471593  0.8067487020563107  0.0873043166517675   T   T   T
  0.8602699893777270  0.6966571153599830  0.2540758428511296   T   T   T
  0.5268159919180704  0.0299643535366982  0.4206347108096509   T   T   T
  0.1932331649656049  0.3631950892067124  0.0872965109891055   T   T   T
  0.3033372050113528  0.1636139066926177  0.2540768132417313   T   T   T
  0.9700292073246501  0.4968444779109404  0.4206308329069302   T   T   T
  0.6367921880215306  0.8300418275680173  0.0872955608262629   T   T   T
  0.1636100758445593  0.8602713242741302  0.2459400417500106   T   T   T
  0.8300342659047502  0.1932500440053957  0.4127139629165768   T   T   T
  0.4968495430463662  0.5268128728691437  0.0793647913319688   T   T   T
  0.1397231334105129  0.3033399294888426  0.2459163254431544   T   T   T
  0.8067606239365048  0.6368034588945761  0.4127061289120775   T   T   T
  0.4732027621127841  0.9700559248390377  0.0793742809057534   T   T   T
  0.6966652264895714  0.8363939934681852  0.2459215924770533   T   T   T
  0.3632018164088393  0.1699605672616400  0.4127026745462459   T   T   T
  0.0299663299092714  0.5031576945621055  0.0793729534493650   T   T   T
  0.8363919274765550  0.1397315456842421  0.7540826997923347   T   T   T
  0.5031461904818215  0.4731942025846863  0.9206346203218558   T   T   T
  0.1699587445471593  0.8067487020563107  0.5873043166517675   T   T   T
  0.8602699893777270  0.6966571153599830  0.7540758428511296   T   T   T
  0.5268159919180704  0.0299643535366982  0.9206346808096484   T   T   T
  0.1932331649656049  0.3631950892067124  0.5872965109891055   T   T   T
  0.3033372050113528  0.1636139066926177  0.7540768132417313   T   T   T
  0.9700292073246501  0.4968444779109404  0.9206308029069277   T   T   T
  0.6367921880215306  0.8300418275680173  0.5872955608262629   T   T   T
  0.1636100758445593  0.8602713242741302  0.7459400267500129   T   T   T
  0.8300342659047502  0.1932500440053957  0.9127139629165768   T   T   T
  0.4968495430463662  0.5268128728691437  0.5793648133319707   T   T   T
  0.1397231334105129  0.3033399294888426  0.7459163104431568   T   T   T
  0.8067606239365048  0.6368034588945761  0.9127061289120775   T   T   T
  0.4732027621127841  0.9700559248390377  0.5793743029057552   T   T   T
  0.6966652264895714  0.8363939934681852  0.7459215774770556   T   T   T
  0.3632018164088393  0.1699605672616400  0.9127026745462459   T   T   T
  0.0299663299092714  0.5031576945621055  0.5793729754493668   T   T   T
 
  0.00000000E+00  0.00000000E+00  0.00000000E+00
  0.00000000E+00  0.00000000E+00  0.00000000E+00
  0.00000000E+00  0.00000000E+00  0.00000000E+00
  0.00000000E+00  0.00000000E+00  0.00000000E+00
  0.00000000E+00  0.00000000E+00  0.00000000E+00
  0.00000000E+00  0.00000000E+00  0.00000000E+00
  0.00000000E+00  0.00000000E+00  0.00000000E+00
  0.00000000E+00  0.00000000E+00  0.00000000E+00
  0.00000000E+00  0.00000000E+00  0.00000000E+00
  0.00000000E+00  0.00000000E+00  0.00000000E+00
  0.00000000E+00  0.00000000E+00  0.00000000E+00
  0.00000000E+00  0.00000000E+00  0.00000000E+00
  0.00000000E+00  0.00000000E+00  0.00000000E+00
  0.00000000E+00  0.00000000E+00  0.00000000E+00
  0.00000000E+00  0.00000000E+00  0.00000000E+00
  0.00000000E+00  0.00000000E+00  0.00000000E+00
  0.00000000E+00  0.00000000E+00  0.00000000E+00
  0.00000000E+00  0.00000000E+00  0.00000000E+00
  0.00000000E+00  0.00000000E+00  0.00000000E+00
  0.00000000E+00  0.00000000E+00  0.00000000E+00
  0.00000000E+00  0.00000000E+00  0.00000000E+00
  0.00000000E+00  0.00000000E+00  0.00000000E+00
  0.00000000E+00  0.00000000E+00  0.00000000E+00
  0.00000000E+00  0.00000000E+00  0.00000000E+00
  0.00000000E+00  0.00000000E+00  0.00000000E+00
  0.00000000E+00  0.00000000E+00  0.00000000E+00
  0.00000000E+00  0.00000000E+00  0.00000000E+00
  0.00000000E+00  0.00000000E+00  0.00000000E+00
  0.00000000E+00  0.00000000E+00  0.00000000E+00
  0.00000000E+00  0.00000000E+00  0.00000000E+00
  0.00000000E+00  0.00000000E+00  0.00000000E+00
  0.00000000E+00  0.00000000E+00  0.00000000E+00
  0.00000000E+00  0.00000000E+00  0.00000000E+00
  0.00000000E+00  0.00000000E+00  0.00000000E+00
  0.00000000E+00  0.00000000E+00  0.00000000E+00
  0.00000000E+00  0.00000000E+00  0.00000000E+00
  0.00000000E+00  0.00000000E+00  0.00000000E+00
  0.00000000E+00  0.00000000E+00  0.00000000E+00
  0.00000000E+00  0.00000000E+00  0.00000000E+00
  0.00000000E+00  0.00000000E+00  0.00000000E+00
  0.00000000E+00  0.00000000E+00  0.00000000E+00
  0.00000000E+00  0.00000000E+00  0.00000000E+00
  0.00000000E+00  0.00000000E+00  0.00000000E+00
  0.00000000E+00  0.00000000E+00  0.00000000E+00
  0.00000000E+00  0.00000000E+00  0.00000000E+00
  0.00000000E+00  0.00000000E+00  0.00000000E+00
  0.00000000E+00  0.00000000E+00  0.00000000E+00
  0.00000000E+00  0.00000000E+00  0.00000000E+00
  0.00000000E+00  0.00000000E+00  0.00000000E+00
  0.00000000E+00  0.00000000E+00  0.00000000E+00
  0.00000000E+00  0.00000000E+00  0.00000000E+00
  0.00000000E+00  0.00000000E+00  0.00000000E+00
  0.00000000E+00  0.00000000E+00  0.00000000E+00
  0.00000000E+00  0.00000000E+00  0.00000000E+00
  0.00000000E+00  0.00000000E+00  0.00000000E+00
  0.00000000E+00  0.00000000E+00  0.00000000E+00
  0.00000000E+00  0.00000000E+00  0.00000000E+00
  0.00000000E+00  0.00000000E+00  0.00000000E+00
  0.00000000E+00  0.00000000E+00  0.00000000E+00
  0.00000000E+00  0.00000000E+00  0.00000000E+00
  0.00000000E+00  0.00000000E+00  0.00000000E+00
  0.00000000E+00  0.00000000E+00  0.00000000E+00
  0.00000000E+00  0.00000000E+00  0.00000000E+00
  0.00000000E+00  0.00000000E+00  0.00000000E+00
  0.00000000E+00  0.00000000E+00  0.00000000E+00
  0.00000000E+00  0.00000000E+00  0.00000000E+00
  0.00000000E+00  0.00000000E+00  0.00000000E+00
  0.00000000E+00  0.00000000E+00  0.00000000E+00
  0.00000000E+00  0.00000000E+00  0.00000000E+00
  0.00000000E+00  0.00000000E+00  0.00000000E+00
  0.00000000E+00  0.00000000E+00  0.00000000E+00
  0.00000000E+00  0.00000000E+00  0.00000000E+00
  0.00000000E+00  0.00000000E+00  0.00000000E+00
  0.00000000E+00  0.00000000E+00  0.00000000E+00
  0.00000000E+00  0.00000000E+00  0.00000000E+00
  0.00000000E+00  0.00000000E+00  0.00000000E+00
  0.00000000E+00  0.00000000E+00  0.00000000E+00
  0.00000000E+00  0.00000000E+00  0.00000000E+00
  0.00000000E+00  0.00000000E+00  0.00000000E+00
  0.00000000E+00  0.00000000E+00  0.00000000E+00
  0.00000000E+00  0.00000000E+00  0.00000000E+00
  0.00000000E+00  0.00000000E+00  0.00000000E+00
  0.00000000E+00  0.00000000E+00  0.00000000E+00
  0.00000000E+00  0.00000000E+00  0.00000000E+00
  0.00000000E+00  0.00000000E+00  0.00000000E+00
  0.00000000E+00  0.00000000E+00  0.00000000E+00
  0.00000000E+00  0.00000000E+00  0.00000000E+00
  0.00000000E+00  0.00000000E+00  0.00000000E+00
  0.00000000E+00  0.00000000E+00  0.00000000E+00
  0.00000000E+00  0.00000000E+00  0.00000000E+00
  0.00000000E+00  0.00000000E+00  0.00000000E+00
  0.00000000E+00  0.00000000E+00  0.00000000E+00
  0.00000000E+00  0.00000000E+00  0.00000000E+00
  0.00000000E+00  0.00000000E+00  0.00000000E+00
  0.00000000E+00  0.00000000E+00  0.00000000E+00
  0.00000000E+00  0.00000000E+00  0.00000000E+00
  0.00000000E+00  0.00000000E+00  0.00000000E+00
  0.00000000E+00  0.00000000E+00  0.00000000E+00
  0.00000000E+00  0.00000000E+00  0.00000000E+00
  0.00000000E+00  0.00000000E+00  0.00000000E+00
  0.00000000E+00  0.00000000E+00  0.00000000E+00
  0.00000000E+00  0.00000000E+00  0.00000000E+00
  0.00000000E+00  0.00000000E+00  0.00000000E+00
  0.00000000E+00  0.00000000E+00  0.00000000E+00
  0.00000000E+00  0.00000000E+00  0.00000000E+00
  0.00000000E+00  0.00000000E+00  0.00000000E+00
  0.00000000E+00  0.00000000E+00  0.00000000E+00
  0.00000000E+00  0.00000000E+00  0.00000000E+00
  0.00000000E+00  0.00000000E+00  0.00000000E+00
  0.00000000E+00  0.00000000E+00  0.00000000E+00
  0.00000000E+00  0.00000000E+00  0.00000000E+00
  0.00000000E+00  0.00000000E+00  0.00000000E+00
  0.00000000E+00  0.00000000E+00  0.00000000E+00
  0.00000000E+00  0.00000000E+00  0.00000000E+00
  0.00000000E+00  0.00000000E+00  0.00000000E+00
  0.00000000E+00  0.00000000E+00  0.00000000E+00
  0.00000000E+00  0.00000000E+00  0.00000000E+00
  0.00000000E+00  0.00000000E+00  0.00000000E+00
  0.00000000E+00  0.00000000E+00  0.00000000E+00
  0.00000000E+00  0.00000000E+00  0.00000000E+00
  0.00000000E+00  0.00000000E+00  0.00000000E+00
  0.00000000E+00  0.00000000E+00  0.00000000E+00