   Fe    O    C    H                    
   1.00000000000000     
    26.0174637329035328    0.0000314254818213    0.0000163159279562
   -13.0087046846327326   22.5316494757252919   -0.0000937890073778
     0.0000089113707193   -0.0000541752210593   14.2716613996288828
   Fe   O    C    H 
    36   108   216   180
Selective dynamics
Direct
  0.9431074712806478  0.6288992932872333  0.2562637021407710   T   T   T
  0.6097744982389699  0.9622339895505121  0.4229212530219471   T   T   T
  0.2764448129090766  0.2955628618667063  0.0895889438280406   T   T   T
  0.3710988583418029  0.3142071546390355  0.2562594613819513   T   T   T
  0.0377661935336562  0.6475413002045158  0.4229269859135485   T   T   T
  0.7044353038905555  0.9808776710740688  0.0895899611433606   T   T   T
  0.6857903995274270  0.0568907708233368  0.2562576148440812   T   T   T
  0.3524591472383349  0.3902259105373105  0.4229241004264566   T   T   T
  0.0191202445124645  0.7235566296122187  0.0895925541411629   T   T   T
  0.0568921229958832  0.3711008160385276  0.2437358875033340   T   T   T
  0.7235539843232104  0.7044360748065444  0.4104106181267753   T   T   T
  0.3902268419032566  0.0377660761355756  0.0770796718059898   T   T   T
  0.6288999866353251  0.6857908424121817  0.2437382229428664   T   T   T
  0.2955651469088565  0.0191231476033025  0.4104090950116515   T   T   T
  0.9622320683298753  0.3524594355704380  0.0770707466620593   T   T   T
  0.3142099533429032  0.9431083929065025  0.2437445551099913   T   T   T
  0.9808796207771735  0.2764443138712238  0.4104075764008570   T   T   T
  0.6475408371663463  0.6097740380391059  0.0770733755583990   T   T   T
  0.9431074712806478  0.6288992932872333  0.7562637021407710   T   T   T
  0.6097744982389699  0.9622339895505121  0.9229212230219446   T   T   T
  0.2764448129090766  0.2955628618667063  0.5895889288280429   T   T   T
  0.3710988583418029  0.3142071546390355  0.7562594613819513   T   T   T
  0.0377661935336562  0.6475413002045158  0.9229269559135460   T   T   T
  0.7044353038905555  0.9808776710740688  0.5895899461433629   T   T   T
  0.6857903995274270  0.0568907708233368  0.7562576148440812   T   T   T
  0.3524591472383349  0.3902259105373105  0.9229240704264541   T   T   T
  0.0191202445124645  0.7235566296122187  0.5895925391411652   T   T   T
  0.0568921229958832  0.3711008160385276  0.7437358725033292   T   T   T
  0.7235539843232104  0.7044360748065444  0.9104106181267753   T   T   T
  0.3902268419032566  0.0377660761355756  0.5770796938059917   T   T   T
  0.6288999866353251  0.6857908424121817  0.7437382079428616   T   T   T
  0.2955651469088565  0.0191231476033025  0.9104090950116515   T   T   T
  0.9622320683298753  0.3524594355704380  0.5770707686620611   T   T   T
  0.3142099533429032  0.9431083929065025  0.7437445401099865   T   T   T
  0.9808796207771735  0.2764443138712238  0.9104075764008570   T   T   T
  0.6475408371663463  0.6097740380391059  0.5770733975584008   T   T   T
  0.6824794785147645  0.9753934062643737  0.3234275949834213   T   T   T
  0.6904678472424308  0.9227134391163077  0.2038269877679824   T   T   T
  0.3132693302074472  0.2534637172102308  0.1604721543457828   T   T   T
  0.3491588175849003  0.3087357565766951  0.4900839758588234   T   T   T
  0.3571202687429107  0.2560314534120423  0.3704890619577696   T   T   T
  0.9799370957062834  0.5867966342464754  0.3271537485357712   T   T   T
  0.0158224748990463  0.6420630948142616  0.1567502657485278   T   T   T
  0.0237860638251846  0.5893693759186149  0.0371538174487753   T   T   T
  0.6466074113957134  0.9201349746012752  0.4938075161922342   T   T   T
  0.0246044092365310  0.7070889630044022  0.3234328268657123   T   T   T
  0.0772858542486290  0.7677494936515359  0.2038311870547602   T   T   T
  0.7465333155110017  0.0598023239300289  0.1604804986103332   T   T   T
  0.6912775017370123  0.0404194041154398  0.4901017458223436   T   T   T
  0.7439546095431098  0.1010842543793942  0.3704985055163732   T   T   T
  0.4131982776247298  0.3931383454896036  0.3271481689677032   T   T   T
  0.3579356729228493  0.3737582577481504  0.1567662013690807   T   T   T
  0.4106257528694428  0.4344154179510085  0.0371707525137950   T   T   T
  0.0798641318585567  0.7264741227742917  0.4938058118381790   T   T   T
  0.2929058059673793  0.3175099591517423  0.3234108297367868   T   T   T
  0.2322439396694307  0.3095327142377755  0.2038239669553334   T   T   T
  0.9401963784134111  0.6867356974933259  0.1604780275992539   T   T   T
  0.9595740659771224  0.6508461464812854  0.4900902546675781   T   T   T
  0.8989131517578244  0.6428694634128789  0.3705000847354611   T   T   T
  0.6068603666167718  0.0200655710494004  0.3271566234971957   T   T   T
  0.6262396812866911  0.9841742209048618  0.1567542274561262   T   T   T
  0.5655794015973328  0.9762056219229081  0.0371611561029468   T   T   T
  0.2735284942560270  0.3533913499278896  0.4938035602371613   T   T   T
  0.3175226536957823  0.0246068297827691  0.1765705734376510   T   T   T
  0.3095294356477893  0.0772839535931382  0.2961726223744492   T   T   T
  0.6867342835251407  0.7465379874012612  0.3395344334771835   T   T   T
  0.9841770956944558  0.3579377543208579  0.3432504169342323   T   T   T
  0.9762147887572539  0.4106335162671044  0.4628455002409382   T   T   T
  0.3533910356754859  0.0798624386224702  0.0061947063877312   T   T   T
  0.6508454281397249  0.6912678485577146  0.0099116646516677   T   T   T
  0.6428820273224716  0.7439682226384008  0.1295115034554470   T   T   T
  0.0200647817211319  0.4132016811329677  0.1728474988322120   T   T   T
  0.9753941629020062  0.2929137868478335  0.1765671133497619   T   T   T
  0.9227147099942599  0.2322520003555724  0.2961687255912508   T   T   T
  0.2534682881808408  0.9401981386941856  0.3395215399039131   T   T   T
  0.6420663348415658  0.6262395165018191  0.3432391403057835   T   T   T
  0.5893733715503942  0.5655820671236924  0.4628302987113102   T   T   T
  0.9201346548681855  0.2735269270448129  0.0061932028970091   T   T   T
  0.3087236298053071  0.9595766914443047  0.0098981466439128   T   T   T
  0.2560439849151237  0.8989151296551796  0.1295033552015283   T   T   T
  0.5867999212402353  0.6068604669502733  0.1728505165288183   T   T   T
  0.7070925741017646  0.6824886712473912  0.1765870873447426   T   T   T
  0.7677549949541103  0.6904671463009464  0.2961751928247836   T   T   T
  0.0598031569697923  0.3132648358736034  0.3395218069081380   T   T   T
  0.3737618640301221  0.0158277758096048  0.3432485975341919   T   T   T
  0.4344208853404510  0.0237929761109470  0.4628396292962549   T   T   T
  0.7264707668932573  0.6466072968377574  0.0061934745750776   T   T   T
  0.0404263012106796  0.3491550090924349  0.0099074037124822   T   T   T
  0.1010849521468771  0.3571267609215454  0.1295032248534227   T   T   T
  0.3931376952221655  0.9799343448732145  0.1728469732667932   T   T   T
  0.6824794785147645  0.9753934062643737  0.8234275949834213   T   T   T
  0.6904678472424308  0.9227134391163077  0.7038270167679812   T   T   T
  0.3132693302074472  0.2534637172102308  0.6604721693457805   T   T   T
  0.3491588175849003  0.3087357565766951  0.9900840048588222   T   T   T
  0.3571202687429107  0.2560314534120423  0.8704890619577696   T   T   T
  0.9799370957062834  0.5867966342464754  0.8271537185357687   T   T   T
  0.0158224748990463  0.6420630948142616  0.6567502507485230   T   T   T
  0.0237860638251846  0.5893693759186149  0.5371538214487686   T   T   T
  0.6466074113957134  0.9201349746012752  0.9938075161922342   T   T   T
  0.0246044092365310  0.7070889630044022  0.8234328268657123   T   T   T
  0.0772858542486290  0.7677494936515359  0.7038312160547591   T   T   T
  0.7465333155110017  0.0598023239300289  0.6604805136103309   T   T   T
  0.6912775017370123  0.0404194041154398  0.9901017748223424   T   T   T
  0.7439546095431098  0.1010842543793942  0.8704985055163732   T   T   T
  0.4131982776247298  0.3931383454896036  0.8271481389677007   T   T   T
  0.3579356729228493  0.3737582577481504  0.6567661863690759   T   T   T
  0.4106257528694428  0.4344154179510085  0.5371707565137882   T   T   T
  0.0798641318585567  0.7264741227742917  0.9938058118381790   T   T   T
  0.2929058059673793  0.3175099591517423  0.8234108297367868   T   T   T
  0.2322439396694307  0.3095327142377755  0.7038239959553323   T   T   T
  0.9401963784134111  0.6867356974933259  0.6604780425992516   T   T   T
  0.9595740659771224  0.6508461464812854  0.9900902836675769   T   T   T
  0.8989131517578244  0.6428694634128789  0.8705000847354611   T   T   T
  0.6068603666167718  0.0200655710494004  0.8271565934971932   T   T   T
  0.6262396812866911  0.9841742209048618  0.6567542124561214   T   T   T
  0.5655794015973328  0.9762056219229081  0.5371611601029400   T   T   T
  0.2735284942560270  0.3533913499278896  0.9938035602371613   T   T   T
  0.3175226536957823  0.0246068297827691  0.6765705734376510   T   T   T
  0.3095294356477893  0.0772839535931382  0.7961725933744503   T   T   T
  0.6867342835251407  0.7465379874012612  0.8395344334771835   T   T   T
  0.9841770956944558  0.3579377543208579  0.8432504169342323   T   T   T
  0.9762147887572539  0.4106335162671044  0.9628455002409382   T   T   T
  0.3533910356754859  0.0798624386224702  0.5061947073877278   T   T   T
  0.6508454281397249  0.6912678485577146  0.5099116396516692   T   T   T
  0.6428820273224716  0.7439682226384008  0.6295115184554447   T   T   T
  0.0200647817211319  0.4132016811329677  0.6728475288322144   T   T   T
  0.9753941629020062  0.2929137868478335  0.6765671133497619   T   T   T
  0.9227147099942599  0.2322520003555724  0.7961686965912520   T   T   T
  0.2534682881808408  0.9401981386941856  0.8395215399039131   T   T   T
  0.6420663348415658  0.6262395165018191  0.8432391403057835   T   T   T
  0.5893733715503942  0.5655820671236924  0.9628302987113102   T   T   T
  0.9201346548681855  0.2735269270448129  0.5061932038970056   T   T   T
  0.3087236298053071  0.9595766914443047  0.5098981216439142   T   T   T
  0.2560439849151237  0.8989151296551796  0.6295033702015260   T   T   T
  0.5867999212402353  0.6068604669502733  0.6728505465288208   T   T   T
  0.7070925741017646  0.6824886712473912  0.6765870873447426   T   T   T
  0.7677549949541103  0.6904671463009464  0.7961751638247847   T   T   T
  0.0598031569697923  0.3132648358736034  0.8395218069081380   T   T   T
  0.3737618640301221  0.0158277758096048  0.8432485975341919   T   T   T
  0.4344208853404510  0.0237929761109470  0.9628396292962549   T   T   T
  0.7264707668932573  0.6466072968377574  0.5061934755750741   T   T   T
  0.0404263012106796  0.3491550090924349  0.5099073787124837   T   T   T
  0.1010849521468771  0.3571267609215454  0.6295032398534204   T   T   T
  0.3931376952221655  0.9799343448732145  0.6728470032667957   T   T   T
  0.6825174968520358  0.9294072016459367  0.2899544192018766   T   T   T
  0.6738802596834788  0.8808383189801106  0.3572468188278819   T   T   T
  0.3237420104939730  0.2120962520437075  0.1199863906899168   T   T   T
  0.3171068531889887  0.1648452761115706  0.1764077158637036   T   T   T
  0.6996454483593268  0.1503110897459266  0.2448183413795846   T   T   T
  0.3337403921055540  0.4528201984400866  0.3345886907845141   T   T   T
  0.3491833758353948  0.2627400196413205  0.4566204728015109   T   T   T
  0.3405453542106898  0.2141727632638890  0.0239131427516597   T   T   T
  0.9904096630684407  0.5454303226859878  0.2866569418198424   T   T   T
  0.9837753007487464  0.4981744261113548  0.3430686757925372   T   T   T
  0.3663133786082113  0.4836447138925379  0.4114811000475171   T   T   T
  0.0004052294773587  0.7861551050388158  0.5012525773213881   T   T   T
  0.0158514322959817  0.5960748212077860  0.1232833829018816   T   T   T
  0.0072128956478110  0.5475087478065319  0.1905794089684960   T   T   T
  0.6570772610418913  0.8787659325798884  0.4533238324320266   T   T   T
  0.6504425732755834  0.8315114742670389  0.0097359940262152   T   T   T
  0.0329786661557492  0.8169769499011252  0.0781472910185812   T   T   T
  0.6670745729986649  0.1194876712304520  0.1679232560909796   T   T   T
  0.0705907028828605  0.7531080570014623  0.2899573474491746   T   T   T
  0.1191594733620889  0.7930397107918878  0.3572520284140452   T   T   T
  0.7878982478114906  0.1116421403608996  0.1199927607509181   T   T   T
  0.8351551806963258  0.1522636447818684  0.1764040540950589   T   T   T
  0.8496854497317230  0.5493325990229820  0.2448176082272013   T   T   T
  0.5471813322403989  0.8809203322074879  0.3345869314298966   T   T   T
  0.7372602320263653  0.0864418952024693  0.4566259591781616   T   T   T
  0.7858239003394445  0.1263745092315318  0.0239198750893834   T   T   T
  0.4545660881545999  0.4449767927125876  0.2866583214147553   T   T   T
  0.5018226523516418  0.4855960479428205  0.3430706586511931   T   T   T
  0.5163555043160812  0.8826673652425114  0.4114784102101581   T   T   T
  0.2138458572317248  0.2142514106366136  0.5012498350741126   T   T   T
  0.4039226382614274  0.4197732390590687  0.1232927713789067   T   T   T
  0.4524943399178341  0.4597060061178979  0.1905823344008581   T   T   T
  0.1212339305706394  0.7783106130021196  0.4533243868649564   T   T   T
  0.1684881705376071  0.8189305668248892  0.0097360564225824   T   T   T
  0.1830250638501170  0.2159998594380568  0.0781509053674370   T   T   T
  0.8805136402692213  0.5475832815548287  0.1679287516774934   T   T   T
  0.2468893684077500  0.3174801747723635  0.2899492516430655   T   T   T
  0.2069633901244501  0.3261218010291813  0.3572486237348116   T   T   T
  0.8883559151581508  0.6762584966376863  0.1199964487577105   T   T   T
  0.8477329055942704  0.6828914027415109  0.1764085468014542   T   T   T
  0.4506693757893387  0.3003566928517358  0.2448163611358680   T   T   T
  0.1190774305297992  0.6662603821714512  0.3345877024780961   T   T   T
  0.9135581353192777  0.6508171668184914  0.4566253438938048   T   T   T
  0.8736276089857355  0.6594527934441246  0.0239215661144598   T   T   T
  0.5550221413850522  0.0095908576958834  0.2866580014000064   T   T   T
  0.5144031074247266  0.0162268345103271  0.3430703830668307   T   T   T
  0.1173321736537929  0.6336898361799257  0.4114806859435021   T   T   T
  0.7857481389549577  0.9995939948218222  0.5012534240579072   T   T   T
  0.5802210283826454  0.9841416876470888  0.1232882218736435   T   T   T
  0.5402933442845423  0.9927866129403284  0.1905822945017448   T   T   T
  0.2216916996979137  0.3429236419165562  0.4533229986056284   T   T   T
  0.1810688961195837  0.3495584612520375  0.0097307248886054   T   T   T
  0.7839980107334910  0.9670223302874135  0.0781472666448337   T   T   T
  0.4524144761038968  0.3329288402185497  0.1679272060628492   T   T   T
  0.3174820913308736  0.0705943116661416  0.2100404755178360   T   T   T
  0.3261189461795269  0.1191618762827318  0.1427537413574385   T   T   T
  0.6762580414682589  0.7879049500716420  0.3800142659950509   T   T   T
  0.6828931452413514  0.8351554525221232  0.3235929416698440   T   T   T
  0.3003551490044245  0.8496891186745188  0.2551817067532269   T   T   T
  0.6662587181352464  0.5471790376775587  0.1654135105695644   T   T   T
  0.9841492343749607  0.4039267697867075  0.3767159076197117   T   T   T
  0.9927880471201007  0.4524903992520990  0.3094170248868409   T   T   T
  0.3429225071941175  0.1212347427277862  0.0466784299694183   T   T   T
  0.3495577409762376  0.1684880231168577  0.4902649060434641   T   T   T
  0.9670214357502047  0.1830238683373366  0.4218527423138525   T   T   T
  0.3329261330856426  0.8805125128326736  0.3320767945534584   T   T   T
  0.6508182597306913  0.7372609439833369  0.0433792536276982   T   T   T
  0.6594532376830600  0.7858265485106344  0.4760876432594685   T   T   T
  0.0095908894331203  0.4545678323493831  0.2133398095029833   T   T   T
  0.0162253169828404  0.5018240086969215  0.1569286769214386   T   T   T
  0.6336885626061459  0.5163553897799318  0.0885172846333475   T   T   T
  0.9995947402339382  0.2138456346464537  0.9987475488618003   T   T   T
  0.9294090875793302  0.2468935483193420  0.2100426171549685   T   T   T
  0.8808408794025482  0.2069613940917563  0.1427476984964642   T   T   T
  0.2121023651449576  0.8883580236494524  0.3800087617557253   T   T   T
  0.1648460871911226  0.8477371637421882  0.3235959951573761   T   T   T
  0.1503141794228711  0.4506672521951245  0.2551817014436111   T   T   T
  0.4528191344946961  0.1190800656004214  0.1654131180072937   T   T   T
  0.5960776481428312  0.5802247680711616  0.3767088648349812   T   T   T
  0.5475059190414768  0.5402937177653300  0.3094165637622197   T   T   T
  0.8787655083572403  0.2216897255654544  0.0466750878800042   T   T   T
  0.8315111933974109  0.1810692113600112  0.4902641708589499   T   T   T
  0.8169746072940924  0.7840003195400627  0.4218493320209689   T   T   T
  0.1194862275445701  0.4524168098366843  0.3320707640155618   T   T   T
  0.2627399528516463  0.9135568487712291  0.0433764548699500   T   T   T
  0.2141757678547833  0.8736252869739189  0.4760818440039287   T   T   T
  0.5454317593736775  0.5550205648193156  0.2133393595796846   T   T   T
  0.4981767875520120  0.5144025565220431  0.1569261244818421   T   T   T
  0.4836447624199991  0.1173329312333919  0.0885213919147958   T   T   T
  0.7861538658031293  0.7857487425553771  0.9987502566309274   T   T   T
  0.7531100055329603  0.6825203020398405  0.2100504957771037   T   T   T
  0.7930358168257925  0.6738789161930399  0.1427496493961868   T   T   T
  0.1116438805856603  0.3237420850086536  0.3800034442239379   T   T   T
  0.1522664304306005  0.3171093505119487  0.3235900723807390   T   T   T
  0.5493312433138726  0.6996434904994473  0.2551827942484763   T   T   T
  0.8809207332885123  0.3337385470263854  0.1654115810011660   T   T   T
  0.4197797095092284  0.0158587718723098  0.3767132165765119   T   T   T
  0.4597059422688616  0.0072135877620596  0.3094177417191872   T   T   T
  0.7783071450027848  0.6570754798469736  0.0466756648011284   T   T   T
  0.8189308411213716  0.6504418286558362  0.4902690145689732   T   T   T
  0.2160018594650808  0.0329774640666542  0.4218537339974517   T   T   T
  0.5475860012447669  0.6670711306817907  0.3320720626138254   T   T   T
  0.0864407621037486  0.3491818550917927  0.0433768941425399   T   T   T
  0.1263720981699166  0.3405480385502599  0.4760787969366547   T   T   T
  0.4449768631385993  0.9904091900703733  0.2133427072899181   T   T   T
  0.4855958154123243  0.9837734788774455  0.1569298942696662   T   T   T
  0.8826694603362455  0.3663121241563587  0.0885217436495225   T   T   T
  0.2142517240546482  0.0004056438434290  0.9987474110446328   T   T   T
  0.6825174968520358  0.9294072016459367  0.7899543892018741   T   T   T
  0.6738802596834788  0.8808383189801106  0.8572468188278819   T   T   T
  0.3237420104939730  0.2120962520437075  0.6199864056899145   T   T   T
  0.3171068531889887  0.1648452761115706  0.6764077308637084   T   T   T
  0.6996454483593268  0.1503110897459266  0.7448183563795823   T   T   T
  0.3337403921055540  0.4528201984400866  0.8345886907845141   T   T   T
  0.3491833758353948  0.2627400196413205  0.9566204728015109   T   T   T
  0.3405453542106898  0.2141727632638890  0.5239131597516575   T   T   T
  0.9904096630684407  0.5454303226859878  0.7866569708198341   T   T   T
  0.9837753007487464  0.4981744261113548  0.8430687057925397   T   T   T
  0.3663133786082113  0.4836447138925379  0.9114811300475196   T   T   T
  0.0004052294773587  0.7861551050388158  0.0012525773213881   T   T   T
  0.0158514322959817  0.5960748212077860  0.6232833969018827   T   T   T
  0.0072128956478110  0.5475087478065319  0.6905794389684985   T   T   T
  0.6570772610418913  0.8787659325798884  0.9533238324320266   T   T   T
  0.6504425732755834  0.8315114742670389  0.5097359810262176   T   T   T
  0.0329786661557492  0.8169769499011252  0.5781472760185835   T   T   T
  0.6670745729986649  0.1194876712304520  0.6679232860909821   T   T   T
  0.0705907028828605  0.7531080570014623  0.7899573174491721   T   T   T
  0.1191594733620889  0.7930397107918878  0.8572520284140452   T   T   T
  0.7878982478114906  0.1116421403608996  0.6199927757509158   T   T   T
  0.8351551806963258  0.1522636447818684  0.6764040690950637   T   T   T
  0.8496854497317230  0.5493325990229820  0.7448176232271990   T   T   T
  0.5471813322403989  0.8809203322074879  0.8345869314298966   T   T   T
  0.7372602320263653  0.0864418952024693  0.9566259591781616   T   T   T
  0.7858239003394445  0.1263745092315318  0.5239198920893813   T   T   T
  0.4545660881545999  0.4449767927125876  0.7866583504147542   T   T   T
  0.5018226523516418  0.4855960479428205  0.8430706886511956   T   T   T
  0.5163555043160812  0.8826673652425114  0.9114784402101606   T   T   T
  0.2138458572317248  0.2142514106366136  0.0012498350741126   T   T   T
  0.4039226382614274  0.4197732390590687  0.6232927853789079   T   T   T
  0.4524943399178341  0.4597060061178979  0.6905823644008606   T   T   T
  0.1212339305706394  0.7783106130021196  0.9533243868649564   T   T   T
  0.1684881705376071  0.8189305668248892  0.5097360434225848   T   T   T
  0.1830250638501170  0.2159998594380568  0.5781508903674393   T   T   T
  0.8805136402692213  0.5475832815548287  0.6679287816774959   T   T   T
  0.2468893684077500  0.3174801747723635  0.7899492216430630   T   T   T
  0.2069633901244501  0.3261218010291813  0.8572486237348116   T   T   T
  0.8883559151581508  0.6762584966376863  0.6199964637577082   T   T   T
  0.8477329055942704  0.6828914027415109  0.6764085618014590   T   T   T
  0.4506693757893387  0.3003566928517358  0.7448163761358657   T   T   T
  0.1190774305297992  0.6662603821714512  0.8345877024780961   T   T   T
  0.9135581353192777  0.6508171668184914  0.9566253438938048   T   T   T
  0.8736276089857355  0.6594527934441246  0.5239215831144577   T   T   T
  0.5550221413850522  0.0095908576958834  0.7866580304000053   T   T   T
  0.5144031074247266  0.0162268345103271  0.8430704130668332   T   T   T
  0.1173321736537929  0.6336898361799257  0.9114807159435045   T   T   T
  0.7857481389549577  0.9995939948218222  0.0012534240579072   T   T   T
  0.5802210283826454  0.9841416876470888  0.6232882358736447   T   T   T
  0.5402933442845423  0.9927866129403284  0.6905823245017473   T   T   T
  0.2216916996979137  0.3429236419165562  0.9533229986056284   T   T   T
  0.1810688961195837  0.3495584612520375  0.5097307118886079   T   T   T
  0.7839980107334910  0.9670223302874135  0.5781472516448360   T   T   T
  0.4524144761038968  0.3329288402185497  0.6679272360628516   T   T   T
  0.3174820913308736  0.0705943116661416  0.7100404905178337   T   T   T
  0.3261189461795269  0.1191618762827318  0.6427537553574325   T   T   T
  0.6762580414682589  0.7879049500716420  0.8800142359950556   T   T   T
  0.6828931452413514  0.8351554525221232  0.8235929416698440   T   T   T
  0.3003551490044245  0.8496891186745188  0.7551817067532269   T   T   T
  0.6662587181352464  0.5471790376775587  0.6654135255695692   T   T   T
  0.9841492343749607  0.4039267697867075  0.8767158786197058   T   T   T
  0.9927880471201007  0.4524903992520990  0.8094169948868384   T   T   T
  0.3429225071941175  0.1212347427277862  0.5466784379694118   T   T   T
  0.3495577409762376  0.1684880231168577  0.9902649060434641   T   T   T
  0.9670214357502047  0.1830238683373366  0.9218527423138525   T   T   T
  0.3329261330856426  0.8805125128326736  0.8320767645534559   T   T   T
  0.6508182597306913  0.7372609439833369  0.5433792606277024   T   T   T
  0.6594532376830600  0.7858265485106344  0.9760876132594731   T   T   T
  0.0095908894331203  0.4545678323493831  0.7133397805029844   T   T   T
  0.0162253169828404  0.5018240086969215  0.6569286469214362   T   T   T
  0.6336885626061459  0.5163553897799318  0.5885172616333421   T   T   T
  0.9995947402339382  0.2138456346464537  0.4987475468618001   T   T   T
  0.9294090875793302  0.2468935483193420  0.7100426321549662   T   T   T
  0.8808408794025482  0.2069613940917563  0.6427477124964653   T   T   T
  0.2121023651449576  0.8883580236494524  0.8800087317557299   T   T   T
  0.1648460871911226  0.8477371637421882  0.8235959951573761   T   T   T
  0.1503141794228711  0.4506672521951245  0.7551817014436111   T   T   T
  0.4528191344946961  0.1190800656004214  0.6654131330072985   T   T   T
  0.5960776481428312  0.5802247680711616  0.8767088358349753   T   T   T
  0.5475059190414768  0.5402937177653300  0.8094165337622172   T   T   T
  0.8787655083572403  0.2216897255654544  0.5466750958799977   T   T   T
  0.8315111933974109  0.1810692113600112  0.9902641708589499   T   T   T
  0.8169746072940924  0.7840003195400627  0.9218493320209689   T   T   T
  0.1194862275445701  0.4524168098366843  0.8320707340155593   T   T   T
  0.2627399528516463  0.9135568487712291  0.5433764618699541   T   T   T
  0.2141757678547833  0.8736252869739189  0.9760818140039333   T   T   T
  0.5454317593736775  0.5550205648193156  0.7133393305796858   T   T   T
  0.4981767875520120  0.5144025565220431  0.6569260944818396   T   T   T
  0.4836447624199991  0.1173329312333919  0.5885213689147903   T   T   T
  0.7861538658031293  0.7857487425553771  0.4987502546309273   T   T   T
  0.7531100055329603  0.6825203020398405  0.7100505107771014   T   T   T
  0.7930358168257925  0.6738789161930399  0.6427496633961880   T   T   T
  0.1116438805856603  0.3237420850086536  0.8800034142239426   T   T   T
  0.1522664304306005  0.3171093505119487  0.8235900723807390   T   T   T
  0.5493312433138726  0.6996434904994473  0.7551827942484763   T   T   T
  0.8809207332885123  0.3337385470263854  0.6654115960011708   T   T   T
  0.4197797095092284  0.0158587718723098  0.8767131875765060   T   T   T
  0.4597059422688616  0.0072135877620596  0.8094177117191848   T   T   T
  0.7783071450027848  0.6570754798469736  0.5466756728011219   T   T   T
  0.8189308411213716  0.6504418286558362  0.9902690145689732   T   T   T
  0.2160018594650808  0.0329774640666542  0.9218537339974517   T   T   T
  0.5475860012447669  0.6670711306817907  0.8320720326138229   T   T   T
  0.0864407621037486  0.3491818550917927  0.5433769011425440   T   T   T
  0.1263720981699166  0.3405480385502599  0.9760787669366593   T   T   T
  0.4449768631385993  0.9904091900703733  0.7133426782899193   T   T   T
  0.4855958154123243  0.9837734788774455  0.6569298642696637   T   T   T
  0.8826694603362455  0.3663121241563587  0.5885217206495170   T   T   T
  0.2142517240546482  0.0004056438434290  0.4987474090446327   T   T   T
  0.3046968082739738  0.1641460797232668  0.2494679643164801   T   T   T
  0.7479781839169348  0.1768203571426099  0.2425360625615411   T   T   T
  0.2856526982749585  0.4331244720378606  0.3337664723394766   T   T   T
  0.3547882658547792  0.4536196575029550  0.2682200737073330   T   T   T
  0.0114773681744040  0.8212312922730476  0.1409941653695270   T   T   T
  0.9713625500744314  0.4974735915531312  0.4161252553465857   T   T   T
  0.4146437279235684  0.5101522069695577  0.4092017827918042   T   T   T
  0.9523144785642330  0.7664544545902103  0.5004323861956195   T   T   T
  0.0214541920983891  0.7869501359454745  0.4348822501778002   T   T   T
  0.6781435871568107  0.1545633689363726  0.3076680526420859   T   T   T
  0.6380298490999792  0.8308133671003191  0.0827913980983723   T   T   T
  0.0813091803675476  0.8434858956536146  0.0758597692545848   T   T   T
  0.6189853834077823  0.0997892154003424  0.1671013482816690   T   T   T
  0.6881237572381238  0.1202870480610017  0.1015554512451970   T   T   T
  0.3448139932291596  0.4878983631790348  0.4743296942096435   T   T   T
  0.8358609675755346  0.1405550741689794  0.2494634105192404   T   T   T
  0.8231838121322781  0.5711579912646982  0.2425390398157248   T   T   T
  0.5668777462474566  0.8525292284365023  0.3337668666564326   T   T   T
  0.5463826630646835  0.9011695218597922  0.2682197517542093   T   T   T
  0.1787740726293023  0.1902426312684753  0.1410004010039358   T   T   T
  0.5025219975399793  0.4738853304438777  0.4161271219900158   T   T   T
  0.4898499457609162  0.9044916763104425  0.4091979868024325   T   T   T
  0.2335439741958751  0.1858614977758606  0.5004246741257816   T   T   T
  0.2130462739515266  0.2345045274776041  0.4348824618339293   T   T   T
  0.8454340083813534  0.5235763962909843  0.3076717194769429   T   T   T
  0.1691900834804585  0.8072207980209924  0.0827947559432687   T   T   T
  0.1565157947988354  0.2378228005100667  0.0758706578201966   T   T   T
  0.9002071251655153  0.5191919076366105  0.1671040760255380   T   T   T
  0.8797142307915777  0.5678374501911136  0.1015535363379527   T   T   T
  0.5121030039944898  0.8569155719776731  0.4743271569687195   T   T   T
  0.8594408137823066  0.6953053738123245  0.2494702360991639   T   T   T
  0.4288410937648663  0.2520246774854655  0.2425409745139504   T   T   T
  0.1474719721331610  0.7143518891601914  0.3337681384509850   T   T   T
  0.0988310718771359  0.6452139107552952  0.2682154203025817   T   T   T
  0.8097548301450459  0.9885248044750270  0.1409944992197367   T   T   T
  0.5261140268848905  0.0286413171033004  0.4161263550610101   T   T   T
  0.0955088284803622  0.5853578862974160  0.4091979558901073   T   T   T
  0.8141411391927562  0.0476848797013929  0.5004290281424986   T   T   T
  0.7654979327649016  0.9785438380308307  0.4348804791916621   T   T   T
  0.4764234000540242  0.3218600104858922  0.3076697760667315   T   T   T
  0.1927773246231581  0.3619700277093827  0.0827880423855731   T   T   T
  0.7621754026355205  0.9186908665000502  0.0758631325491237   T   T   T
  0.4808086000731322  0.3810167861319016  0.1670997711043398   T   T   T
  0.4321630436463693  0.3118765623667628  0.1015562093717293   T   T   T
  0.1430841378939078  0.6551886405692997  0.4743288273392778   T   T   T
  0.6953044490156586  0.8358567159826720  0.2505336851811606   T   T   T