   Fe    O    C    H                    
   1.00000000000000     
    26.4681817398813024   -0.0000544684748116   -0.0000212197775438
   -13.2341380397339012   22.9221143185420750    0.0000658010737679
    -0.0000108396783481    0.0000325547625899   13.5251838963539690
   Fe   O    C    H 
    36   108   252   324
Selective dynamics
Direct
  0.9577595436042614  0.6419230388430961  0.2614374935612247   T   T   T
  0.6243640306972011  0.9751931616076064  0.4281673506551797   T   T   T
  0.2911310089021484  0.3086509880640733  0.0946866005951463   T   T   T
  0.3580720545057261  0.3158317732728193  0.2614377314032126   T   T   T
  0.0248091059056605  0.6491691497533907  0.4281640999764917   T   T   T
  0.6913540224419634  0.9824868779556652  0.0946858299822395   T   T   T
  0.6841755488110408  0.0422483823974389  0.2614328965411161   T   T   T
  0.3508224330374006  0.3756337325587822  0.4281695013443141   T   T   T
  0.0175120169215290  0.7088622881059692  0.0946874392560204   T   T   T
  0.0422427156176610  0.3580745286843907  0.2385634440822599   T   T   T
  0.7088666357718978  0.6913488340083376  0.4053116100578862   T   T   T
  0.3756353260654635  0.0248080579528818  0.0718300895014465   T   T   T
  0.6419265060042818  0.6841668715421534  0.2385639517730525   T   T   T
  0.3086487660916717  0.0175145768218101  0.4053112694907313   T   T   T
  0.9751911692995776  0.3508300383606198  0.0718399844956110   T   T   T
  0.3158246075579072  0.9577522891284147  0.2385715767050129   T   T   T
  0.9824883441527845  0.2911356011652728  0.4053168396621132   T   T   T
  0.6491743135472134  0.6243643807165640  0.0718286114538884   T   T   T
  0.9577590665733595  0.6419226820507760  0.7614365373417655   T   T   T
  0.6243649387436534  0.9751934137034652  0.9281689688606818   T   T   T
  0.2911293634219163  0.3086507385782440  0.5946828211347324   T   T   T
  0.3580712190067175  0.3158326853614284  0.7614406682657275   T   T   T
  0.0248089633309974  0.6491694481800252  0.9281651796399402   T   T   T
  0.6913524764441306  0.9824882355075459  0.5946869943709316   T   T   T
  0.6841766025758460  0.0422484996752388  0.7614286846463827   T   T   T
  0.3508241758603248  0.3756367318880294  0.9281660854475362   T   T   T
  0.0175117784280587  0.7088616077308458  0.5946887060946793   T   T   T
  0.0422437277136964  0.3580752257556341  0.7385661548948121   T   T   T
  0.7088677842779205  0.6913490887566383  0.9053145812551335   T   T   T
  0.3756380711256995  0.0248095716482766  0.5718349534755518   T   T   T
  0.6419271354352603  0.6841659149140327  0.7385609560396560   T   T   T
  0.3086476747010352  0.0175158266448889  0.9053159336403453   T   T   T
  0.9751918943484412  0.3508284701306295  0.5718373192341062   T   T   T
  0.3158257223254424  0.9577546142352986  0.7385669719955956   T   T   T
  0.9824890624707123  0.2911364248741677  0.9053114188022917   T   T   T
  0.6491736504575769  0.6243630740139494  0.5718312901709268   T   T   T
  0.6516459974586368  0.9539693763230161  0.3016646664372544   T   T   T
  0.6974811127740352  0.9265939077287086  0.1949305452520989   T   T   T
  0.3059175274386163  0.2476933032633468  0.1616487084203726   T   T   T
  0.3183398038698897  0.2873148836072374  0.4682239100071328   T   T   T
  0.3642396323085961  0.2599184331276305  0.3615731554666155   T   T   T
  0.9725775923921915  0.5810266443697429  0.3283749062416632   T   T   T
  0.9848926412430572  0.6205640096133394  0.1349576903439456   T   T   T
  0.0307753648793749  0.5931794516154199  0.0282908951510237   T   T   T
  0.6388765734249375  0.9140941897220003  0.4950690135177069   T   T   T
  0.0460413460093037  0.6976779646521010  0.3016465399105499   T   T   T
  0.0734060372313863  0.7708904139339765  0.1949214784615094   T   T   T
  0.7523039969958134  0.0582244331124784  0.1616618236794238   T   T   T
  0.7126877719538953  0.0310237666486159  0.4682236095919592   T   T   T
  0.7400848405176035  0.1043236706988893  0.3615752655894369   T   T   T
  0.4189724373761123  0.3915485327585273  0.3283784230702267   T   T   T
  0.3794336352175236  0.3643261422107500  0.1349642266511850   T   T   T
  0.4068105926271386  0.4375908722226143  0.0282993301970649   T   T   T
  0.0859084458024526  0.7247848186640695  0.4950738258891363   T   T   T
  0.3023177950605387  0.3483569505095048  0.3016449901308249   T   T   T
  0.2291075063631283  0.3025186459127767  0.1949191476419045   T   T   T
  0.9417819957042468  0.6940857413732289  0.1616549403040395   T   T   T
  0.9689785111508868  0.6816657672888340  0.4682246994444839   T   T   T
  0.8956826440252570  0.6357607857314420  0.3615759761475488   T   T   T
  0.6084503574220719  0.0274220726889709  0.3283686025632306   T   T   T
  0.6356748291151106  0.0151112069233292  0.1349610685853477   T   T   T
  0.5624087371751614  0.9692243008992989  0.0282946460126681   T   T   T
  0.2752127754613767  0.3611239006619584  0.4950730937405297   T   T   T
  0.3483551360084505  0.0460329649006610  0.1983370016909802   T   T   T
  0.3025207248958068  0.0734080015669747  0.3050721833395258   T   T   T
  0.6940806124005832  0.7523076310164569  0.3383503985527696   T   T   T
  0.0151120420613466  0.3794356064617190  0.3650419280914861   T   T   T
  0.9692229499587910  0.4068146061848523  0.4717097933236545   T   T   T
  0.3611280803673722  0.0859117025748759  0.0049247279099376   T   T   T
  0.6816587881774510  0.7126851718348419  0.0317734436989738   T   T   T
  0.6357600864636765  0.7400817982147387  0.1384251686634244   T   T   T
  0.0274239601591262  0.4189684064791379  0.1716274599771737   T   T   T
  0.9539601816424650  0.3023232800295474  0.1983578022143746   T   T   T
  0.9265947680198892  0.2291098790759705  0.3050799357933016   T   T   T
  0.2476953701089855  0.9417793507060637  0.3383448471890631   T   T   T
  0.6205657534162157  0.6356718213399049  0.3650395326129328   T   T   T
  0.5931834541218208  0.5624042342910940  0.4717039593250973   T   T   T
  0.9140912504804106  0.2752166616415295  0.0049182304050746   T   T   T
  0.2873144306638338  0.9689784513165094  0.0317758720862642   T   T   T
  0.2599170713512677  0.8956793438772905  0.1384234230693480   T   T   T
  0.5810254956113710  0.6084488124595140  0.1716211429377594   T   T   T
  0.6976809098993613  0.6516434962708217  0.1983521926854124   T   T   T
  0.7708902943227471  0.6974792912670935  0.3050803725738405   T   T   T
  0.0582169922125431  0.3059112141924984  0.3383426743229734   T   T   T
  0.3643265708138372  0.9848887304160030  0.3650361930714752   T   T   T
  0.4375898432420513  0.0307746108141060  0.4717055422640613   T   T   T
  0.7247849211577773  0.6388746793842230  0.0049226380255263   T   T   T
  0.0310225040112684  0.3183352163214010  0.0317764451407356   T   T   T
  0.1043208183954718  0.3642404091330249  0.1384247326575121   T   T   T
  0.3915505380185351  0.9725772053997090  0.1716273496869860   T   T   T
  0.6516480103352364  0.9539702793653291  0.8016628573759306   T   T   T
  0.6974809173872458  0.9265921524419625  0.6949282088963997   T   T   T
  0.3059201722198210  0.2476930432568878  0.6616501413329559   T   T   T
  0.3183401734273446  0.2873153864747593  0.9682252926214048   T   T   T
  0.3642417598336962  0.2599200629104601  0.8615751176653887   T   T   T
  0.9725779327104362  0.5810270017237116  0.8283755456349269   T   T   T
  0.9848917927143646  0.6205633072677585  0.6349558651088003   T   T   T
  0.0307746353532536  0.5931784631534498  0.5282893690140185   T   T   T
  0.6388763045242385  0.9140942256746882  0.9950689707280631   T   T   T
  0.0460403849855737  0.6976773242993346  0.8016485886389475   T   T   T
  0.0734069608923846  0.7708907390990802  0.6949208767948392   T   T   T
  0.7523061306743699  0.0582239299030221  0.6616572108500378   T   T   T
  0.7126874060862392  0.0310250322004251  0.9682273820691734   T   T   T
  0.7400856289378197  0.1043238851385482  0.8615775669844155   T   T   T
  0.4189729523373842  0.3915481834485632  0.8283762194687156   T   T   T
  0.3794343068270010  0.3643264763635301  0.6349636249937163   T   T   T
  0.4068112463239757  0.4375917723071723  0.5282975482917607   T   T   T
  0.0859081546196165  0.7247847184519003  0.9950726669234271   T   T   T
  0.3023168233421742  0.3483556210911800  0.8016464530272103   T   T   T
  0.2291075163530607  0.3025196870621798  0.6949210055287196   T   T   T
  0.9417820647040287  0.6940861799017881  0.6616561667504897   T   T   T
  0.9689776842928097  0.6816647100933224  0.9682239798330343   T   T   T
  0.8956818858063258  0.6357605122176295  0.8615764057831754   T   T   T
  0.6084486888415199  0.0274221422137302  0.8283698862810240   T   T   T
  0.6356733391672904  0.0151123323862521  0.6349614999124213   T   T   T
  0.5624086076056898  0.9692259573991535  0.5282908243931601   T   T   T
  0.2752120066992845  0.3611214867759927  0.9950776805539192   T   T   T
  0.3483530301210820  0.0460317657111844  0.6983358164319995   T   T   T
  0.3025215678053996  0.0734086000395635  0.8050711666444599   T   T   T
  0.6940801861307122  0.7523075767191258  0.8383477500292571   T   T   T
  0.0151128545185699  0.3794352939116976  0.8650413454909440   T   T   T
  0.9692229721090797  0.4068126346353154  0.9717062191557986   T   T   T
  0.3611269773309900  0.0859108300344289  0.5049184132672053   T   T   T
  0.6816581097685059  0.7126848368342564  0.5317729062328240   T   T   T
  0.6357595310135622  0.7400818151441015  0.6384253907025652   T   T   T
  0.0274240468574618  0.4189693348122461  0.6716242654447981   T   T   T
  0.9539600583023002  0.3023245945452686  0.6983591782480971   T   T   T
  0.9265966303135755  0.2291106001354848  0.8050814822442689   T   T   T
  0.2476960338825904  0.9417761708792298  0.8383372569796634   T   T   T
  0.6205656210505168  0.6356718654525579  0.8650387016804615   T   T   T
  0.5931831902459734  0.5624041431375773  0.9717046046539224   T   T   T
  0.9140913305235330  0.2752163452977499  0.5049260134669566   T   T   T
  0.2873148610405138  0.9689791536713344  0.5317754427671133   T   T   T
  0.2599186455065521  0.8956790548510085  0.6384235252166590   T   T   T
  0.5810256837514487  0.6084494117882500  0.6716232072032184   T   T   T
  0.6976810720963371  0.6516440393596383  0.6983513891265432   T   T   T
  0.7708899288068807  0.6974787058414122  0.8050793980902640   T   T   T
  0.0582190708281942  0.3059192083178530  0.8383457238280556   T   T   T
  0.3643261527025174  0.9848885436801211  0.8650365178923423   T   T   T
  0.4375912315830846  0.0307759145707394  0.9717059349401325   T   T   T
  0.7247872698743052  0.6388792252382274  0.5049227680288979   T   T   T
  0.0310212229021758  0.3183338399128459  0.5317793584641350   T   T   T
  0.1043196869106140  0.3642389968157218  0.6384274080060592   T   T   T
  0.3915486327823885  0.9725756497361360  0.6716305359584425   T   T   T
  0.6739800265023490  0.9210152778446670  0.2796692012842570   T   T   T
  0.6699998799274951  0.8775002643874998  0.3524637001012181   T   T   T
  0.3190616203128798  0.2091421046153670  0.1204862891256013   T   T   T
  0.3160004061215460  0.1644490214059502  0.1808618957492314   T   T   T
  0.4876100074772367  0.3228042391958610  0.1712532105699864   T   T   T
  0.8399458577696421  0.0107520222386768  0.3978905082177491   T   T   T
  0.8721889818650155  0.0084129236435899  0.0767007576552103   T   T   T
  0.3406786055823261  0.2543616865956366  0.4462660905332925   T   T   T
  0.3366436135920239  0.2108193522749815  0.0190467723871919   T   T   T
  0.9857237822599814  0.5424614523063340  0.2871936688084560   T   T   T
  0.9826824532808587  0.4977924949814465  0.3475619850235674   T   T   T
  0.1542739508282267  0.6561382727159781  0.3378804759597287   T   T   T
  0.5066192415980026  0.3440899531893464  0.0646080214204190   T   T   T
  0.5388547672189787  0.3417453649435345  0.2434253223185507   T   T   T
  0.0072628888944095  0.5876360302390751  0.1130236499938491   T   T   T
  0.0033189708660331  0.5441516518549747  0.1857800207306468   T   T   T
  0.6523013271533102  0.8757371246057204  0.4538576456995713   T   T   T
  0.6493585022654926  0.8311183892973091  0.0142604607202088   T   T   T
  0.8209378964315661  0.9894718225596009  0.0045419202477319   T   T   T
  0.1732850516835924  0.6774211228575524  0.2312526566952045   T   T   T
  0.2055227554058376  0.6750739744412613  0.4100419737477310   T   T   T
  0.0789862700441901  0.7529626220728076  0.2796714501650115   T   T   T
  0.1224981545183041  0.7924963910972309  0.3524670180412031   T   T   T
  0.7908641133629999  0.1099240401087300  0.1204886638330720   T   T   T
  0.8355504630011552  0.1515505975962341  0.1808707885316920   T   T   T
  0.6771979077596910  0.1648078013425760  0.1712564706970880   T   T   T
  0.9892483318640828  0.8291928182698598  0.3978872836444225   T   T   T
  0.9915884731209061  0.8637753113575002  0.0767050906724549   T   T   T
  0.7456448637028075  0.0863218674287509  0.4462674805146349   T   T   T
  0.7891833646613122  0.1258244296634388  0.0190507487768272   T   T   T
  0.4575321925210716  0.4432589353673606  0.2871921693079429   T   T   T
  0.5022053720363289  0.4848877158389158  0.3475598521648777   T   T   T
  0.3438590153962409  0.4981355846308873  0.3378800753892222   T   T   T
  0.6559122035985325  0.1625326779819218  0.0646154755499495   T   T   T
  0.6582563611437280  0.1971112137297979  0.2434195678834072   T   T   T
  0.4123587558146298  0.4196228555081873  0.1130255989809683   T   T   T
  0.4558449011197041  0.4591649932215631  0.1857796722693550   T   T   T
  0.1242637505312487  0.7765626362440585  0.4538608857680586   T   T   T
  0.1688793006649902  0.8182403952792043  0.0142597623126193   T   T   T
  0.0105286682885435  0.8314647169277762  0.0045404062130388   T   T   T
  0.3225765280942312  0.4958624903344955  0.2312504755761680   T   T   T
  0.3249235181411336  0.5304481953311893  0.4100437971808830   T   T   T
  0.2470356718566222  0.3260243505453815  0.2796676952669586   T   T   T
  0.2075013355538218  0.3300001063391633  0.3524667588906709   T   T   T
  0.8900790394215434  0.6809382288125647  0.1204886517932664   T   T   T
  0.8484548008215427  0.6840020910079261  0.1808656700637243   T   T   T
  0.8351933817401260  0.5123897673793039  0.1712558754859543   T   T   T
  0.1708071539105092  0.1600546208370304  0.3978917071454831   T   T   T
  0.1362257915540042  0.1278124958573343  0.0767013166958677   T   T   T
  0.9136821768305268  0.6593236894485131  0.4462682554881141   T   T   T
  0.8741791030361128  0.6633581115230953  0.0190480406468438   T   T   T
  0.5567402842399787  0.0142752158819235  0.2871859733432203   T   T   T
  0.5151081409020293  0.0173160945150741  0.3475611601390085   T   T   T
  0.5018630248101914  0.8457252799212256  0.3378794467724830   T   T   T
  0.8374675649828873  0.4933797410507097  0.0646098979274683   T   T   T
  0.8028879962926538  0.4611431255700040  0.2434239399169726   T   T   T
  0.5803763411779244  0.9927383196027932  0.1130247894729237   T   T   T
  0.5408339609540320  0.9966805187334984  0.1857774203561959   T   T   T
  0.2234346825674720  0.3476998390962720  0.4538612227824430   T   T   T
  0.1817607944638624  0.3506423207270686  0.0142578595916234   T   T   T
  0.1685356488095664  0.1790632906257628  0.0045414282163918   T   T   T
  0.5041371312648266  0.8267156078118703  0.2312518230285789   T   T   T
  0.4695518792921618  0.7944773802956391  0.4100443004341656   T   T   T
  0.3260215879038171  0.0789866773185608  0.2203330756453994   T   T   T
  0.3300009748227453  0.1225007947975456  0.1475358147882133   T   T   T
  0.6809378116420959  0.7908592578391236  0.3795126881437483   T   T   T
  0.6840001463484882  0.8355525527374610  0.3191361533030062   T   T   T
  0.5123888422360565  0.6771952221428847  0.3287463511949795   T   T   T
  0.1600547439670166  0.9892490317319442  0.1021095214267405   T   T   T
  0.1278118234431957  0.9915883848135962  0.4232994062677164   T   T   T
  0.9927376755383932  0.4123604655890389  0.3869776778905987   T   T   T
  0.9966803272749587  0.4558428417159206  0.3142212661603025   T   T   T
  0.3476995105188081  0.1242640926046619  0.0461399564642946   T   T   T
  0.3506415485350800  0.1688828564381808  0.4857378781424799   T   T   T
  0.1790628381860486  0.0105293636593800  0.4954582439908535   T   T   T
  0.8267156531590274  0.3225786540925455  0.2687485274729937   T   T   T
  0.7944776097705386  0.3249256869430752  0.0899582529844380   T   T   T
  0.6593212758494502  0.7456389814644027  0.0537326815995343   T   T   T
  0.6633565106014103  0.7891823712811004  0.4809525449335297   T   T   T
  0.0142757758379588  0.4575333489160016  0.2128076100402723   T   T   T
  0.0173166825745596  0.5022015789018894  0.1524384876765623   T   T   T
  0.8457265160746843  0.3438613527230956  0.1621202079795694   T   T   T
  0.4933796901736258  0.6559095184031563  0.4353916213253086   T   T   T
  0.4611440278332921  0.6582539889562398  0.2565742732844498   T   T   T
  0.9210150994896438  0.2470380515046955  0.2203300739142975   T   T   T
  0.8775033932501870  0.2075052174505245  0.1475326284614624   T   T   T
  0.2091373057219883  0.8900787349856216  0.3795139621692627   T   T   T
  0.1644509103611682  0.8484508545971963  0.3191310762300787   T   T   T
  0.3228025580449412  0.8351930405357280  0.3287435798227207   T   T   T
  0.0107520281560625  0.1708075317288191  0.1021108540489664   T   T   T
  0.0084137359911907  0.1362266712318529  0.4232973288327955   T   T   T
  0.5876376244370789  0.5803733645572748  0.3869767286866264   T   T   T
  0.5441515463250042  0.5408324024464619  0.3142213297628231   T   T   T
  0.8757393425960416  0.2234399996174048  0.0461374433919275   T   T   T
  0.8311216324594213  0.1817602128131171  0.4857408461355845   T   T   T
  0.9894724851721648  0.1685367250191376  0.4954593855909408   T   T   T
  0.6774247591501137  0.5041371179664367  0.2687487316935204   T   T   T
  0.6750748763449863  0.4695514745056357  0.0899563448380576   T   T   T
  0.2543577217162252  0.9136806695872863  0.0537319093491746   T   T   T
  0.2108188757403013  0.8741781888099283  0.4809517010139288   T   T   T
  0.5424642800934194  0.5567380006538585  0.2128079511462673   T   T   T
  0.4977910563509980  0.5151094202470787  0.1524407295918877   T   T   T
  0.6561408459201630  0.5018648883629311  0.1621200542333909   T   T   T
  0.3440881784313063  0.8374680085453363  0.4353846700408823   T   T   T
  0.3417440954356152  0.8028895896203210  0.2565803738054484   T   T   T
  0.7529634531775358  0.6739755682716293  0.2203308813428038   T   T   T
  0.7924979916522830  0.6700003547266178  0.1475323604958945   T   T   T
  0.1099216809599355  0.3190617909482611  0.3795118815222907   T   T   T
  0.1515450208166556  0.3159982198918740  0.3191344112327599   T   T   T
  0.1648065448915901  0.4876090365125592  0.3287447056457182   T   T   T
  0.8291926725443233  0.8399459135990099  0.1021078662685966   T   T   T
  0.8637739762770806  0.8721882200374793  0.4232983672968516   T   T   T
  0.4196233798268878  0.0072620529307059  0.3869748478696735   T   T   T
  0.4591664804318469  0.0033203572312317  0.3142227665795119   T   T   T
  0.7765640211091309  0.6523009141773883  0.0461367404385342   T   T   T
  0.8182396493602653  0.6493580653705138  0.4857429569250726   T   T   T
  0.8314641712481219  0.8209372944486759  0.4954580830284669   T   T   T
  0.4958625626139153  0.1732846948757540  0.2687482907362551   T   T   T
  0.5304478876968091  0.2055230145666869  0.0899556180556047   T   T   T
  0.0863188630512965  0.3406772138061029  0.0537327806864667   T   T   T
  0.1258198673854025  0.3366422418221475  0.4809529063342097   T   T   T
  0.4432594452280370  0.9857250826301609  0.2128136366522000   T   T   T
  0.4848920215710208  0.9826845152763752  0.1524388675597379   T   T   T
  0.4981368394870600  0.1542753256689906  0.1621206782987059   T   T   T
  0.1625320760525995  0.5066189928366356  0.4353903433342339   T   T   T
  0.1971117835680118  0.5388555790741734  0.2565765101503530   T   T   T
  0.6739798973180413  0.9210139074827950  0.7796678627233433   T   T   T
  0.6699993695125457  0.8774996271278752  0.8524637682226270   T   T   T
  0.3190627590780153  0.2091415487584243  0.6204862163496401   T   T   T
  0.3160003477247741  0.1644485920442307  0.6808614286229684   T   T   T
  0.4876101182294263  0.3228042369448332  0.6712531058650058   T   T   T
  0.8399459384801204  0.0107520609354381  0.8978906098917889   T   T   T
  0.8721889374248377  0.0084128759177986  0.5767005979782667   T   T   T
  0.3406785573189239  0.2543620418722341  0.9462672638088563   T   T   T
  0.3366441661577610  0.2108190746760883  0.5190466721432330   T   T   T
  0.9857241278145779  0.5424618800470569  0.7871931886714947   T   T   T
  0.9826825179837613  0.4977925447290801  0.8475614432751044   T   T   T
  0.1542739942741420  0.6561382772225812  0.8378804236042825   T   T   T
  0.5066192694317024  0.3440899657349661  0.5646080518023453   T   T   T
  0.5388547558582317  0.3417453721066011  0.7434252703054725   T   T   T
  0.0072625706650200  0.5876355451383759  0.6130224962052679   T   T   T
  0.0033190913421848  0.5441518713754334  0.6857795321332745   T   T   T
  0.6523007638844831  0.8757368546231064  0.9538577481856478   T   T   T
  0.6493587754161325  0.8311186889121771  0.5142605401490528   T   T   T
  0.8209379047742686  0.9894717869647351  0.5045417485109809   T   T   T
  0.1732850985804930  0.6774211304179616  0.7312526532915840   T   T   T
  0.2055227767219350  0.6750739571025690  0.9100419433121871   T   T   T
  0.0789862990900190  0.7529621664988895  0.7796712364348792   T   T   T
  0.1224981728702659  0.7924960369242484  0.8524667594846065   T   T   T
  0.7908649707954254  0.1099243277511803  0.6204862744974378   T   T   T
  0.8355510223954070  0.1515510954183270  0.6808699166591836   T   T   T
  0.6771980004482003  0.1648079705038938  0.6712562046254362   T   T   T
  0.9892483448478018  0.8291928687093773  0.8978872966266280   T   T   T
  0.9915884826198109  0.8637752866233228  0.5767049868918335   T   T   T
  0.7456449941903784  0.0863225309751314  0.9462699287950400   T   T   T
  0.7891825666315881  0.1258236833478037  0.5190480260809238   T   T   T
  0.4575327012264196  0.4432589527529984  0.7871915052597416   T   T   T
  0.5022056531282075  0.4848879709202905  0.8475596859287506   T   T   T
  0.3438590111144464  0.4981355529823688  0.8378802117808419   T   T   T
  0.6559122176961125  0.1625327167793813  0.5646150874506972   T   T   T
  0.6582563883769339  0.1971113018676505  0.7434192834765057   T   T   T
  0.4123598420149222  0.4196235376156636  0.6130245502606613   T   T   T
  0.4558453243852583  0.4591649658286627  0.6857790191778648   T   T   T
  0.1242636448053389  0.7765623587587100  0.9538603418779061   T   T   T
  0.1688796295197434  0.8182410497927606  0.5142600129754200   T   T   T
  0.0105286576008439  0.8314646902925631  0.5045403735973082   T   T   T
  0.3225765388186161  0.4958625475625595  0.7312504942926310   T   T   T
  0.3249235135218456  0.5304482404943727  0.9100439628603212   T   T   T
  0.2470353761322173  0.3260241373954429  0.7796692374532483   T   T   T
  0.2075009325782418  0.3299999845932859  0.8524680342368995   T   T   T
  0.8900791113467790  0.6809384009267347  0.6204896101707291   T   T   T
  0.8484549772693342  0.6840023956059653  0.6808661843302914   T   T   T
  0.8351933415810464  0.5123897366537520  0.6712557388521816   T   T   T
  0.1708071133048534  0.1600546202877382  0.8978918781246463   T   T   T
  0.1362257655369490  0.1278124273499657  0.5767012290297160   T   T   T
  0.9136818839264578  0.6593232204556827  0.9462684390805762   T   T   T
  0.8741799234686525  0.6633586735490127  0.5190490170639706   T   T   T
  0.5567394650846680  0.0142743361365234  0.7871863132106114   T   T   T
  0.5151087082097803  0.0173159058878980  0.8475609516087133   T   T   T
  0.5018628978591551  0.8457251396873886  0.8378793023279272   T   T   T
  0.8374675803823166  0.4933797429196503  0.5646097291347729   T   T   T
  0.8028879837404261  0.4611431017505510  0.7434238543481158   T   T   T
  0.5803751560302075  0.9927379065932058  0.6130222766477473   T   T   T
  0.5408341149875326  0.9966797553210611  0.6857767731754905   T   T   T
  0.2234346264373457  0.3476989558539429  0.9538625914682157   T   T   T
  0.1817602467171540  0.3506429404204567  0.5142582105305351   T   T   T
  0.1685356566570562  0.1790632813888777  0.5045413617148853   T   T   T
  0.5041370771024845  0.8267155372612649  0.7312517796702451   T   T   T
  0.4695518737529696  0.7944773442279924  0.9100442344486126   T   T   T
  0.3260203768940144  0.0789866005541953  0.7203312575065155   T   T   T
  0.3300003679221817  0.1225005704968467  0.6475341494980853   T   T   T
  0.6809375999308571  0.7908591352371985  0.8795120126222145   T   T   T
  0.6839999574480515  0.8355522159977795  0.8191363998104393   T   T   T
  0.5123888177378078  0.6771952171232414  0.8287463829108717   T   T   T
  0.1600547922735984  0.9892490165911596  0.6021093035842853   T   T   T
  0.1278117307074069  0.9915883769569263  0.9232994281745306   T   T   T
  0.9927373941831021  0.4123584844533212  0.8869752038398744   T   T   T
  0.9966798516205557  0.4558424126090017  0.8142199861344821   T   T   T
  0.3476986810880973  0.1242632529698824  0.5461381061918473   T   T   T
  0.3506417029929025  0.1688831570283469  0.9857382054799047   T   T   T
  0.1790628328792465  0.0105294191424861  0.9954583171495983   T   T   T
  0.8267159519292449  0.3225786922751652  0.7687481697562504   T   T   T
  0.7944779181115464  0.3249257245582200  0.5899581126581737   T   T   T
  0.6593211968178707  0.7456392296353869  0.5537328079197295   T   T   T
  0.6633563877155808  0.7891820851913849  0.9809522627419867   T   T   T
  0.0142757245895808  0.4575335612617977  0.7128067859256078   T   T   T
  0.0173167998195893  0.5022020030721350  0.6524383043474131   T   T   T
  0.8457267334531906  0.3438613886584605  0.6621200070444289   T   T   T
  0.4933797187516191  0.6559095028371189  0.9353915763402298   T   T   T
  0.4611440756037695  0.6582539842921875  0.7565742939067306   T   T   T
  0.9210152077694360  0.2470384559914223  0.7203318234618408   T   T   T
  0.8775036591652352  0.2075054195881734  0.6475342449026229   T   T   T
  0.2091370994142778  0.8900776833297073  0.8795131933062876   T   T   T
  0.1644507959320833  0.8484503972130284  0.8191308092786258   T   T   T
  0.3228025393690999  0.8351929393703585  0.8287435822747611   T   T   T
  0.0107520165470518  0.1708076461611725  0.6021108889546767   T   T   T
  0.0084137278992671  0.1362265839352901  0.9232973952741048   T   T   T
  0.5876370850794572  0.5803732131555321  0.8869772396334596   T   T   T
  0.5441515676179804  0.5408326466863684  0.8142217102706297   T   T   T
  0.8757376360364759  0.2234385095058258  0.5461396725305647   T   T   T
  0.8311228100226771  0.1817608923200780  0.9857426022798350   T   T   T
  0.9894723872527109  0.1685362819504519  0.9954596415713581   T   T   T
  0.6774247557230879  0.5041371127397554  0.7687487836327094   T   T   T
  0.6750748780791085  0.4695514627350192  0.5899562659393638   T   T   T
  0.2543579090268651  0.9136811168534109  0.5537325260674137   T   T   T
  0.2108187254274370  0.8741773039128802  0.9809519199809458   T   T   T
  0.5424641976558675  0.5567380828274722  0.7128082577415782   T   T   T
  0.4977912922009651  0.5151095817547571  0.6524405033085330   T   T   T
  0.6561408508445865  0.5018649348246527  0.6621199938899096   T   T   T
  0.3440881286409692  0.8374679338417153  0.9353845463173016   T   T   T
  0.3417440241909588  0.8028895585411320  0.7565803828977806   T   T   T
  0.7529635466604105  0.6739758454844846  0.7203299830901884   T   T   T
  0.7924986078944940  0.6700004903520380  0.6475326213468193   T   T   T
  0.1099212379730119  0.3190619588660866  0.8795125219737798   T   T   T
  0.1515444157996839  0.3159976600029566  0.8191343146547680   T   T   T
  0.1648064183797544  0.4876089454961772  0.8287444877540295   T   T   T
  0.8291926720254637  0.8399459147532582  0.6021077675807476   T   T   T
  0.8637739122606973  0.8721881861433971  0.9232984312244383   T   T   T
  0.4196232883578190  0.0072613007039521  0.8869743658691931   T   T   T
  0.4591670765979146  0.0033198403496684  0.8142223045211665   T   T   T
  0.7765655341193636  0.6523016142612192  0.5461374084381987   T   T   T
  0.8182386862431414  0.6493578773626112  0.9857422234471827   T   T   T
  0.8314641149807613  0.8209372294920954  0.9954581392063346   T   T   T
  0.4958625103940335  0.1732846938198378  0.7687483109126632   T   T   T
  0.5304478531932162  0.2055230457702564  0.5899554451935813   T   T   T
  0.0863187528525913  0.3406771522829359  0.5537342539463168   T   T   T
  0.1258203677144039  0.3366415882039462  0.9809530118339396   T   T   T
  0.4432583891874273  0.9857241713315403  0.7128152809460744   T   T   T
  0.4848911345233873  0.9826830704345397  0.6524367284709456   T   T   T
  0.4981366849332360  0.1542752131715659  0.6621205103895136   T   T   T
  0.1625321196954559  0.5066190226868841  0.9353902938815608   T   T   T
  0.1971118492904438  0.5388556397977169  0.7565763660339897   T   T   T
  0.3026442609406814  0.1627903094298588  0.2573962851688734   T   T   T
  0.4602742376648834  0.3404892085077051  0.1982714361381639   T   T   T
  0.4600214934258204  0.2749233008181378  0.1721142806595211   T   T   T
  0.8021469204911398  0.9953094727044487  0.3482071100906694   T   T   T
  0.8646863031814647  0.0587433840514464  0.3943977827480580   T   T   T
  0.8682280654955719  0.9947707474952381  0.3684971200835250   T   T   T
  0.8988143951697651  0.0562522753646206  0.0799277400811604   T   T   T
  0.9006706048759554  0.9913130704663971  0.0534051804082907   T   T   T
  0.8565613308219611  0.9924641827397167  0.1519990763545991   T   T   T
  0.9693094706918970  0.4961108387091997  0.4240843896474544   T   T   T