units           real
atom_style      full
boundary        p p p
dielectric      1
special_bonds   lj/coul 0.0 0.0 1.0 

pair_style      lj/charmm/coul/long/opt 7.5 8.50000 
bond_style      harmonic  
angle_style     harmonic  
dihedral_style  charmm  
improper_style  none
kspace_style    pppm 0.0001  

read_data       data._polymer_5

pair_modify     mix geometric
neighbor        2.0 multi
neigh_modify    every 2 delay 4 check yes
thermo_style    multi

variable        input index in._polymer_5
variable        sname index _polymer_5

run 0