units           real
atom_style      full
boundary        s s s
dielectric      72
special_bonds   lj/coul 0.0 0.0 1.0 

pair_style      lj/cut/coul/debye 0.142 10 
bond_style      harmonic  
angle_style     harmonic  
dihedral_style  charmm  
improper_style  none
kspace_style    none  

read_data       data._polymer_2

pair_modify     mix geometric
neighbor        2.0 multi
neigh_modify    every 2 delay 4 check yes
thermo_style    multi

variable        input index in._polymer_2
variable        sname index _polymer_2

print                          .
print ==========================================
print "500 steps CG Minimization"
print ==========================================
print                          .

dump            1 all atom 25 ${sname}.min.lammpstrj
dump_modify     1 image yes scale yes
thermo          10
min_style       sd
minimize        1.0e-4 1.0e-4 500 5000
min_style       cg
minimize        1.0e-4 1.0e-4 500 5000
#now minimize the entire system
minimize        1.0e-4 1.0e-4 500 5000
undump          1
