NumberOfAtoms    240           # Number of atoms
NumberOfSpecies  2           # Number of species

%block ChemicalSpeciesLabel
 1 5 B
 2 7 N
%endblock ChemicalSpeciesLabel

#(3) Lattice, coordinates, k-sampling

LatticeConstant       1.000000000 Ang
%block LatticeVectors
   12.560000000     0.000000000     0.000000000
    0.000000000    13.056000000     0.000000000
    0.000000000     0.000000000    14.000000000
%endblock LatticeVectors

AtomicCoordinatesFormat Ang
%block AtomicCoordinatesAndAtomicSpecies
     1.884107070     0.725448880     5.426816250    1    1
     0.627892930     1.450724450     1.573183750    1    2
     0.627892950     2.901275550     5.426816250    1    3
     1.884107070     0.725448880     1.573183750    2    4
     0.627892930     1.450724450     5.426816250    2    5
     0.627892950     2.901275550     1.573183750    2    6
     1.884107040     3.626551120     1.573183750    1    7
     1.884107040     3.626551120     5.426816250    2    8
     4.396107070     0.725448880     5.426816250    1    9
     3.139892930     1.450724450     1.573183750    1   10
     3.139892950     2.901275550     5.426816250    1   11
     4.396107070     0.725448880     1.573183750    2   12
     3.139892930     1.450724450     5.426816250    2   13
     3.139892950     2.901275550     1.573183750    2   14
     4.396107040     3.626551120     1.573183750    1   15
     4.396107040     3.626551120     5.426816250    2   16
     6.908107070     0.725448880     5.426816250    1   17
     5.651892930     1.450724450     1.573183750    1   18
     5.651892950     2.901275550     5.426816250    1   19
     6.908107070     0.725448880     1.573183750    2   20
     5.651892930     1.450724450     5.426816250    2   21
     5.651892950     2.901275550     1.573183750    2   22
     6.908107040     3.626551120     1.573183750    1   23
     6.908107040     3.626551120     5.426816250    2   24
     9.420107070     0.725448880     5.426816250    1   25
     8.163892930     1.450724450     1.573183750    1   26
     8.163892950     2.901275550     5.426816250    1   27
     9.420107070     0.725448880     1.573183750    2   28
     8.163892930     1.450724450     5.426816250    2   29
     8.163892950     2.901275550     1.573183750    2   30
     9.420107040     3.626551120     1.573183750    1   31
     9.420107040     3.626551120     5.426816250    2   32
    11.932107070     0.725448880     5.426816250    1   33
    10.675892930     1.450724450     1.573183750    1   34
    10.675892950     2.901275550     5.426816250    1   35
    11.932107070     0.725448880     1.573183750    2   36
    10.675892930     1.450724450     5.426816250    2   37
    10.675892950     2.901275550     1.573183750    2   38
    11.932107040     3.626551120     1.573183750    1   39
    11.932107040     3.626551120     5.426816250    2   40
     1.884107070     5.077448880     5.426816250    1   41
     0.627892930     5.802724450     1.573183750    1   42
     0.627892950     7.253275550     5.426816250    1   43
     1.884107070     5.077448880     1.573183750    2   44
     0.627892930     5.802724450     5.426816250    2   45
     0.627892950     7.253275550     1.573183750    2   46
     1.884107040     7.978551120     1.573183750    1   47
     1.884107040     7.978551120     5.426816250    2   48
     4.396107070     5.077448880     5.426816250    1   49
     3.139892930     5.802724450     1.573183750    1   50
     3.139892950     7.253275550     5.426816250    1   51
     4.396107070     5.077448880     1.573183750    2   52
     3.139892930     5.802724450     5.426816250    2   53
     3.139892950     7.253275550     1.573183750    2   54
     4.396107040     7.978551120     1.573183750    1   55
     4.396107040     7.978551120     5.426816250    2   56
     6.908107070     5.077448880     5.426816250    1   57
     5.651892930     5.802724450     1.573183750    1   58
     5.651892950     7.253275550     5.426816250    1   59
     6.908107070     5.077448880     1.573183750    2   60
     5.651892930     5.802724450     5.426816250    2   61
     5.651892950     7.253275550     1.573183750    2   62
     6.908107040     7.978551120     1.573183750    1   63
     6.908107040     7.978551120     5.426816250    2   64
     9.420107070     5.077448880     5.426816250    1   65
     8.163892930     5.802724450     1.573183750    1   66
     8.163892950     7.253275550     5.426816250    1   67
     9.420107070     5.077448880     1.573183750    2   68
     8.163892930     5.802724450     5.426816250    2   69
     8.163892950     7.253275550     1.573183750    2   70
     9.420107040     7.978551120     1.573183750    1   71
     9.420107040     7.978551120     5.426816250    2   72
    11.932107070     5.077448880     5.426816250    1   73
    10.675892930     5.802724450     1.573183750    1   74
    10.675892950     7.253275550     5.426816250    1   75
    11.932107070     5.077448880     1.573183750    2   76
    10.675892930     5.802724450     5.426816250    2   77
    10.675892950     7.253275550     1.573183750    2   78
    11.932107040     7.978551120     1.573183750    1   79
    11.932107040     7.978551120     5.426816250    2   80
     1.884107070     9.429448880     5.426816250    1   81
     0.627892930    10.154724450     1.573183750    1   82
     0.627892950    11.605275550     5.426816250    1   83
     1.884107070     9.429448880     1.573183750    2   84
     0.627892930    10.154724450     5.426816250    2   85
     0.627892950    11.605275550     1.573183750    2   86
     1.884107040    12.330551120     1.573183750    1   87
     1.884107040    12.330551120     5.426816250    2   88
     4.396107070     9.429448880     5.426816250    1   89
     3.139892930    10.154724450     1.573183750    1   90
     3.139892950    11.605275550     5.426816250    1   91
     4.396107070     9.429448880     1.573183750    2   92
     3.139892930    10.154724450     5.426816250    2   93
     3.139892950    11.605275550     1.573183750    2   94
     4.396107040    12.330551120     1.573183750    1   95
     4.396107040    12.330551120     5.426816250    2   96
     6.908107070     9.429448880     5.426816250    1   97
     5.651892930    10.154724450     1.573183750    1   98
     5.651892950    11.605275550     5.426816250    1   99
     6.908107070     9.429448880     1.573183750    2  100
     5.651892930    10.154724450     5.426816250    2  101
     5.651892950    11.605275550     1.573183750    2  102
     6.908107040    12.330551120     1.573183750    1  103
     6.908107040    12.330551120     5.426816250    2  104
     9.420107070     9.429448880     5.426816250    1  105
     8.163892930    10.154724450     1.573183750    1  106
     8.163892950    11.605275550     5.426816250    1  107
     9.420107070     9.429448880     1.573183750    2  108
     8.163892930    10.154724450     5.426816250    2  109
     8.163892950    11.605275550     1.573183750    2  110
     9.420107040    12.330551120     1.573183750    1  111
     9.420107040    12.330551120     5.426816250    2  112
    11.932107070     9.429448880     5.426816250    1  113
    10.675892930    10.154724450     1.573183750    1  114
    10.675892950    11.605275550     5.426816250    1  115
    11.932107070     9.429448880     1.573183750    2  116
    10.675892930    10.154724450     5.426816250    2  117
    10.675892950    11.605275550     1.573183750    2  118
    11.932107040    12.330551120     1.573183750    1  119
    11.932107040    12.330551120     5.426816250    2  120
     1.884107070     0.725448880    12.426816250    1  121
     0.627892930     1.450724450     8.573183750    1  122
     0.627892950     2.901275550    12.426816250    1  123
     1.884107070     0.725448880     8.573183750    2  124
     0.627892930     1.450724450    12.426816250    2  125
     0.627892950     2.901275550     8.573183750    2  126
     1.884107040     3.626551120     8.573183750    1  127
     1.884107040     3.626551120    12.426816250    2  128
     4.396107070     0.725448880    12.426816250    1  129
     3.139892930     1.450724450     8.573183750    1  130
     3.139892950     2.901275550    12.426816250    1  131
     4.396107070     0.725448880     8.573183750    2  132
     3.139892930     1.450724450    12.426816250    2  133
     3.139892950     2.901275550     8.573183750    2  134
     4.396107040     3.626551120     8.573183750    1  135
     4.396107040     3.626551120    12.426816250    2  136
     6.908107070     0.725448880    12.426816250    1  137
     5.651892930     1.450724450     8.573183750    1  138
     5.651892950     2.901275550    12.426816250    1  139
     6.908107070     0.725448880     8.573183750    2  140
     5.651892930     1.450724450    12.426816250    2  141
     5.651892950     2.901275550     8.573183750    2  142
     6.908107040     3.626551120     8.573183750    1  143
     6.908107040     3.626551120    12.426816250    2  144
     9.420107070     0.725448880    12.426816250    1  145
     8.163892930     1.450724450     8.573183750    1  146
     8.163892950     2.901275550    12.426816250    1  147
     9.420107070     0.725448880     8.573183750    2  148
     8.163892930     1.450724450    12.426816250    2  149
     8.163892950     2.901275550     8.573183750    2  150
     9.420107040     3.626551120     8.573183750    1  151
     9.420107040     3.626551120    12.426816250    2  152
    11.932107070     0.725448880    12.426816250    1  153
    10.675892930     1.450724450     8.573183750    1  154
    10.675892950     2.901275550    12.426816250    1  155
    11.932107070     0.725448880     8.573183750    2  156
    10.675892930     1.450724450    12.426816250    2  157
    10.675892950     2.901275550     8.573183750    2  158
    11.932107040     3.626551120     8.573183750    1  159
    11.932107040     3.626551120    12.426816250    2  160
     1.884107070     5.077448880    12.426816250    1  161
     0.627892930     5.802724450     8.573183750    1  162
     0.627892950     7.253275550    12.426816250    1  163
     1.884107070     5.077448880     8.573183750    2  164
     0.627892930     5.802724450    12.426816250    2  165
     0.627892950     7.253275550     8.573183750    2  166
     1.884107040     7.978551120     8.573183750    1  167
     1.884107040     7.978551120    12.426816250    2  168
     4.396107070     5.077448880    12.426816250    1  169
     3.139892930     5.802724450     8.573183750    1  170
     3.139892950     7.253275550    12.426816250    1  171
     4.396107070     5.077448880     8.573183750    2  172
     3.139892930     5.802724450    12.426816250    2  173
     3.139892950     7.253275550     8.573183750    2  174
     4.396107040     7.978551120     8.573183750    1  175
     4.396107040     7.978551120    12.426816250    2  176
     6.908107070     5.077448880    12.426816250    1  177
     5.651892930     5.802724450     8.573183750    1  178
     5.651892950     7.253275550    12.426816250    1  179
     6.908107070     5.077448880     8.573183750    2  180
     5.651892930     5.802724450    12.426816250    2  181
     5.651892950     7.253275550     8.573183750    2  182
     6.908107040     7.978551120     8.573183750    1  183
     6.908107040     7.978551120    12.426816250    2  184
     9.420107070     5.077448880    12.426816250    1  185
     8.163892930     5.802724450     8.573183750    1  186
     8.163892950     7.253275550    12.426816250    1  187
     9.420107070     5.077448880     8.573183750    2  188
     8.163892930     5.802724450    12.426816250    2  189
     8.163892950     7.253275550     8.573183750    2  190
     9.420107040     7.978551120     8.573183750    1  191
     9.420107040     7.978551120    12.426816250    2  192
    11.932107070     5.077448880    12.426816250    1  193
    10.675892930     5.802724450     8.573183750    1  194
    10.675892950     7.253275550    12.426816250    1  195
    11.932107070     5.077448880     8.573183750    2  196
    10.675892930     5.802724450    12.426816250    2  197
    10.675892950     7.253275550     8.573183750    2  198
    11.932107040     7.978551120     8.573183750    1  199
    11.932107040     7.978551120    12.426816250    2  200
     1.884107070     9.429448880    12.426816250    1  201
     0.627892930    10.154724450     8.573183750    1  202
     0.627892950    11.605275550    12.426816250    1  203
     1.884107070     9.429448880     8.573183750    2  204
     0.627892930    10.154724450    12.426816250    2  205
     0.627892950    11.605275550     8.573183750    2  206
     1.884107040    12.330551120     8.573183750    1  207
     1.884107040    12.330551120    12.426816250    2  208
     4.396107070     9.429448880    12.426816250    1  209
     3.139892930    10.154724450     8.573183750    1  210
     3.139892950    11.605275550    12.426816250    1  211
     4.396107070     9.429448880     8.573183750    2  212
     3.139892930    10.154724450    12.426816250    2  213
     3.139892950    11.605275550     8.573183750    2  214
     4.396107040    12.330551120     8.573183750    1  215
     4.396107040    12.330551120    12.426816250    2  216
     6.908107070     9.429448880    12.426816250    1  217
     5.651892930    10.154724450     8.573183750    1  218
     5.651892950    11.605275550    12.426816250    1  219
     6.908107070     9.429448880     8.573183750    2  220
     5.651892930    10.154724450    12.426816250    2  221
     5.651892950    11.605275550     8.573183750    2  222
     6.908107040    12.330551120     8.573183750    1  223
     6.908107040    12.330551120    12.426816250    2  224
     9.420107070     9.429448880    12.426816250    1  225
     8.163892930    10.154724450     8.573183750    1  226
     8.163892950    11.605275550    12.426816250    1  227
     9.420107070     9.429448880     8.573183750    2  228
     8.163892930    10.154724450    12.426816250    2  229
     8.163892950    11.605275550     8.573183750    2  230
     9.420107040    12.330551120     8.573183750    1  231
     9.420107040    12.330551120    12.426816250    2  232
    11.932107070     9.429448880    12.426816250    1  233
    10.675892930    10.154724450     8.573183750    1  234
    10.675892950    11.605275550    12.426816250    1  235
    11.932107070     9.429448880     8.573183750    2  236
    10.675892930    10.154724450    12.426816250    2  237
    10.675892950    11.605275550     8.573183750    2  238
    11.932107040    12.330551120     8.573183750    1  239
    11.932107040    12.330551120    12.426816250    2  240
%endblock AtomicCoordinatesAndAtomicSpecies
