NumberOfAtoms    8           # Number of atoms
NumberOfSpecies  2           # Number of species

%block ChemicalSpeciesLabel
 1 5 B
 2 7 N
%endblock ChemicalSpeciesLabel

#(3) Lattice, coordinates, k-sampling

LatticeConstant       1.000000000 Ang
%block LatticeVectors
    2.512000000     0.000000000     0.000000000
    0.000000000     4.352000000     0.000000000
    0.000000000     0.000000000     7.000000000
%endblock LatticeVectors

AtomicCoordinatesFormat Ang
%block AtomicCoordinatesAndAtomicSpecies
     1.884107070     0.725448880     5.426816250    1    1
     0.627892930     1.450724450     1.573183750    1    2
     0.627892950     2.901275550     5.426816250    1    3
     1.884107070     0.725448880     1.573183750    2    4
     0.627892930     1.450724450     5.426816250    2    5
     0.627892950     2.901275550     1.573183750    2    6
     1.884107040     3.626551120     1.573183750    1    7
     1.884107040     3.626551120     5.426816250    2    8
%endblock AtomicCoordinatesAndAtomicSpecies
