SYSTEM = cpo27Ca

MAGMOM = 6*1.7 48*1
# continuation
ISTART = 1
ICHARG = 0
ISPIN = 2

# precision
ENCUT = 520
PREC = high
ISMEAR = 0 ; SIGMA = 0.05
#ISMEAR = -5
GGA = PE
NELMIN = 4 ; LMAXMIX = 4
EDIFF = 1E-4 ;  EDIFFG = -1E-1

# parallel
ALGO = Fast
IALGO=48
NSIM=4
NPAR=8
LREAL = Auto
LPLANE = .TRUE.
#LSCALAPACK = .FALSE.

# opt
NSW = 1000 ; ISIF = 3
IBRION = 2
POTIM = 0.1

LORBIT = 11
LAECHG=.TRUE.
LWAVE = .TRUE.
LCHARG = .TRUE.

LVDW = .TRUE.
