SYSTEM = HCCH

# continuation
ISTART = 0
ICHARG = 2
ISPIN = 1

# precision
ENCUT = 520
PREC = high
ISMEAR = 0 ; SIGMA = 0.05
GGA = RP 
NELMIN = 4 ; LMAXMIX = 4
EDIFF = 1E-4 #;  EDIFFG = -1E-2

# parallel
ALGO = Fast
IALGO=48
NSIM=4
NPAR=4
LREAL = .FALSE.
LPLANE = .TRUE.
#LSCALAPACK = .FALSE.

# opt
NSW = 200 ; ISIF = 2
IBRION = 2
POTIM = 0.1

LORBIT = 11
LAECHG=.TRUE.
LWAVE = .TRUE.
LCHARG = .TRUE.

LVDW = .TRUE.
