 S                                      
   1.00000000000000     
     9.3668580951458047    0.0000000000000000    0.0000000000000000
     0.0000000000000000   11.7110313781157878    0.0000000000000000
     0.0000000000000000    0.0000000000000000   22.7085575682477945
   S 
   128
Direct
  0.8538213350643673  0.9604124839442676  0.9434559158518283
  0.1461786649356327  0.0395874940557377  0.0565440881481720
  0.8961786649356327  0.7895875160557324  0.9434559158518283
  0.1038213350643673  0.2104125139442630  0.0565440881481720
  0.8961786649356327  0.9604124839442676  0.8065440841481717
  0.1038213350643673  0.0395874940557377  0.1934559158518283
  0.8538213350643673  0.7895875160557324  0.8065440841481717
  0.1461786649356327  0.2104125139442630  0.1934559158518283
  0.8538213350643673  0.4604125139442630  0.4434559158518283
  0.1461786649356327  0.5395875160557324  0.5565440841481717
  0.8961786649356327  0.2895874860557370  0.4434559158518283
  0.1038213350643673  0.7104124839442676  0.5565440841481717
  0.8961786649356327  0.4604125139442630  0.3065440841481717
  0.1038213350643673  0.5395875160557324  0.6934559158518283
  0.8538213350643673  0.2895874860557370  0.3065440841481717
  0.1461786649356327  0.7104124839442676  0.6934559158518283
  0.3538213350643673  0.9604124839442676  0.4434559158518283
  0.6461786649356327  0.0395874940557377  0.5565440841481717
  0.3961786649356327  0.7895875160557324  0.4434559158518283
  0.6038213350643673  0.2104125139442630  0.5565440841481717
  0.3961786649356327  0.9604124839442676  0.3065440841481717
  0.6038213350643673  0.0395874940557377  0.6934559158518283
  0.3538213350643673  0.7895875160557324  0.3065440841481717
  0.6461786649356327  0.2104125139442630  0.6934559158518283
  0.3538213350643673  0.4604125139442630  0.9434559158518283
  0.6461786649356327  0.5395875160557324  0.0565440881481720
  0.3961786649356327  0.2895874860557370  0.9434559158518283
  0.6038213350643673  0.7104124839442676  0.0565440881481720
  0.3961786649356327  0.4604125139442630  0.8065440841481717
  0.6038213350643673  0.5395875160557324  0.1934559158518283
  0.3538213350643673  0.2895874860557370  0.8065440841481717
  0.6461786649356327  0.7104124839442676  0.1934559158518283
  0.6890841397386467  0.9861063475856255  0.0011822048340875
  0.3109158602613533  0.0138936584143750  0.9988177841659081
  0.0609158602613533  0.7638936524143745  0.0011822048340875
  0.9390841397386467  0.2361063475856255  0.9988177841659081
  0.0609158602613533  0.9861063475856255  0.7488177841659081
  0.9390841397386467  0.0138936584143750  0.2511822158340919
  0.6890841397386467  0.7638936524143745  0.7488177841659081
  0.3109158602613533  0.2361063475856255  0.2511822158340919
  0.6890841397386467  0.4861063475856255  0.5011822158340919
  0.3109158602613533  0.5138936524143745  0.4988177841659081
  0.0609158602613533  0.2638936524143745  0.5011822158340919
  0.9390841397386467  0.7361063475856255  0.4988177841659081
  0.0609158602613533  0.4861063475856255  0.2488177991659128
  0.9390841397386467  0.5138936524143745  0.7511822158340919
  0.6890841397386467  0.2638936524143745  0.2488177991659128
  0.3109158602613533  0.7361063475856255  0.7511822158340919
  0.1890841397386467  0.9861063475856255  0.5011822158340919
  0.8109158602613533  0.0138936584143750  0.4988177841659081
  0.5609158602613533  0.7638936524143745  0.5011822158340919
  0.4390841397386467  0.2361063475856255  0.4988177841659081
  0.5609158602613533  0.9861063475856255  0.2488177991659128
  0.4390841397386467  0.0138936584143750  0.7511822158340919
  0.1890841397386467  0.7638936524143745  0.2488177991659128
  0.8109158602613533  0.2361063475856255  0.7511822158340919
  0.1890841397386467  0.4861063475856255  0.0011822048340875
  0.8109158602613533  0.5138936524143745  0.9988177841659081
  0.5609158602613533  0.2638936524143745  0.0011822048340875
  0.4390841397386467  0.7361063475856255  0.9988177841659081
  0.5609158602613533  0.4861063475856255  0.7488177841659081
  0.4390841397386467  0.5138936524143745  0.2511822158340919
  0.1890841397386467  0.2638936524143745  0.7488177841659081
  0.8109158602613533  0.7361063475856255  0.2511822158340919
  0.7810576005716783  0.0438767152636856  0.0772340662124691
  0.2189423994283217  0.9561233127363167  0.9227659407875279
  0.9689423994283217  0.7061233127363167  0.0772340662124691
  0.0310576005716783  0.2938767172636858  0.9227659407875279
  0.9689423994283217  0.0438767152636856  0.6727659407875279
  0.0310576005716783  0.9561233127363167  0.3272340592124721
  0.7810576005716783  0.7061233127363167  0.6727659407875279
  0.2189423994283217  0.2938767172636858  0.3272340592124721
  0.7810576005716783  0.5438766872636833  0.5772340592124721
  0.2189423994283217  0.4561232827363142  0.4227659407875279
  0.9689423994283217  0.2061232827363142  0.5772340592124721
  0.0310576005716783  0.7938766872636833  0.4227659407875279
  0.9689423994283217  0.5438766872636833  0.1727659407875279
  0.0310576005716783  0.4561232827363142  0.8272340592124721
  0.7810576005716783  0.2061232827363142  0.1727659407875279
  0.2189423994283217  0.7938766872636833  0.8272340592124721
  0.2810576005716783  0.0438767152636856  0.5772340592124721
  0.7189423994283217  0.9561233127363167  0.4227659407875279
  0.4689423994283217  0.7061233127363167  0.5772340592124721
  0.5310576005716783  0.2938767172636858  0.4227659407875279
  0.4689423994283217  0.0438767152636856  0.1727659407875279
  0.5310576005716783  0.9561233127363167  0.8272340592124721
  0.2810576005716783  0.7061233127363167  0.1727659407875279
  0.7189423994283217  0.2938767172636858  0.8272340592124721
  0.2810576005716783  0.5438766872636833  0.0772340662124691
  0.7189423994283217  0.4561232827363142  0.9227659407875279
  0.4689423994283217  0.2061232827363142  0.0772340662124691
  0.5310576005716783  0.7938766872636833  0.9227659407875279
  0.4689423994283217  0.5438766872636833  0.6727659407875279
  0.5310576005716783  0.4561232827363142  0.3272340592124721
  0.2810576005716783  0.2061232827363142  0.6727659407875279
  0.7189423994283217  0.7938766872636833  0.3272340592124721
  0.7772954716168812  0.9140676930337293  0.1370427362807547
  0.2227045283831188  0.0859322849662689  0.8629572787192430
  0.9727045283831188  0.8359323069662707  0.1370427362807547
  0.0272954716168812  0.1640677230337317  0.8629572787192430
  0.9727045283831188  0.9140676930337293  0.6129572787192430
  0.0272954716168812  0.0859322849662689  0.3870427212807570
  0.7772954716168812  0.8359323069662707  0.6129572787192430
  0.2227045283831188  0.1640677230337317  0.3870427212807570
  0.7772954716168812  0.4140677230337317  0.6370427212807570
  0.2227045283831188  0.5859323069662707  0.3629572787192430
  0.9727045283831188  0.3359322769662683  0.6370427212807570
  0.0272954716168812  0.6640676930337293  0.3629572787192430
  0.9727045283831188  0.4140677230337317  0.1129572637192453
  0.0272954716168812  0.5859323069662707  0.8870427212807570
  0.7772954716168812  0.3359322769662683  0.1129572637192453
  0.2227045283831188  0.6640676930337293  0.8870427212807570
  0.2772954716168812  0.9140676930337293  0.6370427212807570
  0.7227045283831188  0.0859322849662689  0.3629572787192430
  0.4727045283831188  0.8359323069662707  0.6370427212807570
  0.5272954716168812  0.1640677230337317  0.3629572787192430
  0.4727045283831188  0.9140676930337293  0.1129572637192453
  0.5272954716168812  0.0859322849662689  0.8870427212807570
  0.2772954716168812  0.8359323069662707  0.1129572637192453
  0.7227045283831188  0.1640677230337317  0.8870427212807570
  0.2772954716168812  0.4140677230337317  0.1370427362807547
  0.7227045283831188  0.5859323069662707  0.8629572787192430
  0.4727045283831188  0.3359322769662683  0.1370427362807547
  0.5272954716168812  0.6640676930337293  0.8629572787192430
  0.4727045283831188  0.4140677230337317  0.6129572787192430
  0.5272954716168812  0.5859323069662707  0.3870427212807570
  0.2772954716168812  0.3359322769662683  0.6129572787192430
  0.7227045283831188  0.6640676930337293  0.3870427212807570
 
  0.00000000E+00  0.00000000E+00  0.00000000E+00
  0.00000000E+00  0.00000000E+00  0.00000000E+00
  0.00000000E+00  0.00000000E+00  0.00000000E+00
  0.00000000E+00  0.00000000E+00  0.00000000E+00
  0.00000000E+00  0.00000000E+00  0.00000000E+00
  0.00000000E+00  0.00000000E+00  0.00000000E+00
  0.00000000E+00  0.00000000E+00  0.00000000E+00
  0.00000000E+00  0.00000000E+00  0.00000000E+00
  0.00000000E+00  0.00000000E+00  0.00000000E+00
  0.00000000E+00  0.00000000E+00  0.00000000E+00
  0.00000000E+00  0.00000000E+00  0.00000000E+00
  0.00000000E+00  0.00000000E+00  0.00000000E+00
  0.00000000E+00  0.00000000E+00  0.00000000E+00
  0.00000000E+00  0.00000000E+00  0.00000000E+00
  0.00000000E+00  0.00000000E+00  0.00000000E+00
  0.00000000E+00  0.00000000E+00  0.00000000E+00
  0.00000000E+00  0.00000000E+00  0.00000000E+00
  0.00000000E+00  0.00000000E+00  0.00000000E+00
  0.00000000E+00  0.00000000E+00  0.00000000E+00
  0.00000000E+00  0.00000000E+00  0.00000000E+00
  0.00000000E+00  0.00000000E+00  0.00000000E+00
  0.00000000E+00  0.00000000E+00  0.00000000E+00
  0.00000000E+00  0.00000000E+00  0.00000000E+00
  0.00000000E+00  0.00000000E+00  0.00000000E+00
  0.00000000E+00  0.00000000E+00  0.00000000E+00
  0.00000000E+00  0.00000000E+00  0.00000000E+00
  0.00000000E+00  0.00000000E+00  0.00000000E+00
  0.00000000E+00  0.00000000E+00  0.00000000E+00
  0.00000000E+00  0.00000000E+00  0.00000000E+00
  0.00000000E+00  0.00000000E+00  0.00000000E+00
  0.00000000E+00  0.00000000E+00  0.00000000E+00
  0.00000000E+00  0.00000000E+00  0.00000000E+00
  0.00000000E+00  0.00000000E+00  0.00000000E+00
  0.00000000E+00  0.00000000E+00  0.00000000E+00
  0.00000000E+00  0.00000000E+00  0.00000000E+00
  0.00000000E+00  0.00000000E+00  0.00000000E+00
  0.00000000E+00  0.00000000E+00  0.00000000E+00
  0.00000000E+00  0.00000000E+00  0.00000000E+00
  0.00000000E+00  0.00000000E+00  0.00000000E+00
  0.00000000E+00  0.00000000E+00  0.00000000E+00
  0.00000000E+00  0.00000000E+00  0.00000000E+00
  0.00000000E+00  0.00000000E+00  0.00000000E+00
  0.00000000E+00  0.00000000E+00  0.00000000E+00
  0.00000000E+00  0.00000000E+00  0.00000000E+00
  0.00000000E+00  0.00000000E+00  0.00000000E+00
  0.00000000E+00  0.00000000E+00  0.00000000E+00
  0.00000000E+00  0.00000000E+00  0.00000000E+00
  0.00000000E+00  0.00000000E+00  0.00000000E+00
  0.00000000E+00  0.00000000E+00  0.00000000E+00
  0.00000000E+00  0.00000000E+00  0.00000000E+00
  0.00000000E+00  0.00000000E+00  0.00000000E+00
  0.00000000E+00  0.00000000E+00  0.00000000E+00
  0.00000000E+00  0.00000000E+00  0.00000000E+00
  0.00000000E+00  0.00000000E+00  0.00000000E+00
  0.00000000E+00  0.00000000E+00  0.00000000E+00
  0.00000000E+00  0.00000000E+00  0.00000000E+00
  0.00000000E+00  0.00000000E+00  0.00000000E+00
  0.00000000E+00  0.00000000E+00  0.00000000E+00
  0.00000000E+00  0.00000000E+00  0.00000000E+00
  0.00000000E+00  0.00000000E+00  0.00000000E+00
  0.00000000E+00  0.00000000E+00  0.00000000E+00
  0.00000000E+00  0.00000000E+00  0.00000000E+00
  0.00000000E+00  0.00000000E+00  0.00000000E+00
  0.00000000E+00  0.00000000E+00  0.00000000E+00
  0.00000000E+00  0.00000000E+00  0.00000000E+00
  0.00000000E+00  0.00000000E+00  0.00000000E+00
  0.00000000E+00  0.00000000E+00  0.00000000E+00
  0.00000000E+00  0.00000000E+00  0.00000000E+00
  0.00000000E+00  0.00000000E+00  0.00000000E+00
  0.00000000E+00  0.00000000E+00  0.00000000E+00
  0.00000000E+00  0.00000000E+00  0.00000000E+00
  0.00000000E+00  0.00000000E+00  0.00000000E+00
  0.00000000E+00  0.00000000E+00  0.00000000E+00
  0.00000000E+00  0.00000000E+00  0.00000000E+00
  0.00000000E+00  0.00000000E+00  0.00000000E+00
  0.00000000E+00  0.00000000E+00  0.00000000E+00
  0.00000000E+00  0.00000000E+00  0.00000000E+00
  0.00000000E+00  0.00000000E+00  0.00000000E+00
  0.00000000E+00  0.00000000E+00  0.00000000E+00
  0.00000000E+00  0.00000000E+00  0.00000000E+00
  0.00000000E+00  0.00000000E+00  0.00000000E+00
  0.00000000E+00  0.00000000E+00  0.00000000E+00
  0.00000000E+00  0.00000000E+00  0.00000000E+00
  0.00000000E+00  0.00000000E+00  0.00000000E+00
  0.00000000E+00  0.00000000E+00  0.00000000E+00
  0.00000000E+00  0.00000000E+00  0.00000000E+00
  0.00000000E+00  0.00000000E+00  0.00000000E+00
  0.00000000E+00  0.00000000E+00  0.00000000E+00
  0.00000000E+00  0.00000000E+00  0.00000000E+00
  0.00000000E+00  0.00000000E+00  0.00000000E+00
  0.00000000E+00  0.00000000E+00  0.00000000E+00
  0.00000000E+00  0.00000000E+00  0.00000000E+00
  0.00000000E+00  0.00000000E+00  0.00000000E+00
  0.00000000E+00  0.00000000E+00  0.00000000E+00
  0.00000000E+00  0.00000000E+00  0.00000000E+00
  0.00000000E+00  0.00000000E+00  0.00000000E+00
  0.00000000E+00  0.00000000E+00  0.00000000E+00
  0.00000000E+00  0.00000000E+00  0.00000000E+00
  0.00000000E+00  0.00000000E+00  0.00000000E+00
  0.00000000E+00  0.00000000E+00  0.00000000E+00
  0.00000000E+00  0.00000000E+00  0.00000000E+00
  0.00000000E+00  0.00000000E+00  0.00000000E+00
  0.00000000E+00  0.00000000E+00  0.00000000E+00
  0.00000000E+00  0.00000000E+00  0.00000000E+00
  0.00000000E+00  0.00000000E+00  0.00000000E+00
  0.00000000E+00  0.00000000E+00  0.00000000E+00
  0.00000000E+00  0.00000000E+00  0.00000000E+00
  0.00000000E+00  0.00000000E+00  0.00000000E+00
  0.00000000E+00  0.00000000E+00  0.00000000E+00
  0.00000000E+00  0.00000000E+00  0.00000000E+00
  0.00000000E+00  0.00000000E+00  0.00000000E+00
  0.00000000E+00  0.00000000E+00  0.00000000E+00
  0.00000000E+00  0.00000000E+00  0.00000000E+00
  0.00000000E+00  0.00000000E+00  0.00000000E+00
  0.00000000E+00  0.00000000E+00  0.00000000E+00
  0.00000000E+00  0.00000000E+00  0.00000000E+00
  0.00000000E+00  0.00000000E+00  0.00000000E+00
  0.00000000E+00  0.00000000E+00  0.00000000E+00
  0.00000000E+00  0.00000000E+00  0.00000000E+00
  0.00000000E+00  0.00000000E+00  0.00000000E+00
  0.00000000E+00  0.00000000E+00  0.00000000E+00
  0.00000000E+00  0.00000000E+00  0.00000000E+00
  0.00000000E+00  0.00000000E+00  0.00000000E+00
  0.00000000E+00  0.00000000E+00  0.00000000E+00
  0.00000000E+00  0.00000000E+00  0.00000000E+00
  0.00000000E+00  0.00000000E+00  0.00000000E+00
  0.00000000E+00  0.00000000E+00  0.00000000E+00
  0.00000000E+00  0.00000000E+00  0.00000000E+00
