 S Li                                   
   1.00000000000000     
     9.3254184894503620   -0.1702944786008533    0.1135746519949692
    -0.2203870096377344   10.8875353382790596   -0.1460742691406239
     0.3368677684864372   -0.2751072586106280   26.7470337929589590
   S    Li
   128    64
Direct
  0.8886562514648588  0.0632926663293532  0.0320628156911908
  0.1390626175399703  0.8558557313406894  0.0616419213610371
  0.0307778263890484  0.0906237617366514  0.9295401546120274
  0.9887752748866205  0.8218559150194196  0.9724251669898720
  0.3559824639870115  0.1382957602145538  0.2302299763773235
  0.1283358008418745  0.3961489402347453  0.2027319168674069
  0.2115206494893584  0.1340368695570930  0.2906671789597652
  0.3650427958703588  0.3499771135799250  0.2936447574192300
  0.9559427533696265  0.6508458027407542  0.5593960901491357
  0.0958689968636293  0.4420605026960160  0.5258123398996375
  0.0447326685699281  0.6421915889539846  0.4418286179406365
  0.9545658016665612  0.4221023119842542  0.4657778872623481
  0.3516633492880956  0.6647318442822652  0.7044979217223002
  0.1359392909574737  0.8379551575519883  0.7146924556580743
  0.2512291210737558  0.6180141993861170  0.7993062049079427
  0.3235865451727875  0.8646724470084592  0.7977819333923648
  0.4300232662141070  0.1051525827889819  0.5324098205521395
  0.5903473186486181  0.8954465620019505  0.5193591488936633
  0.5747983880980883  0.0940985933384439  0.4365652264223954
  0.4246617199079452  0.8561744889155634  0.4588338940886985
  0.7921655234460587  0.1332111474363913  0.7202871178670165
  0.7190966873397144  0.3625935565660470  0.6970166909325641
  0.6843517922863498  0.1579615989522125  0.7954597624958026
  0.8290278885790840  0.3682321275047400  0.7675449580547564
  0.3910030139797982  0.6761839596406816  0.0352653135650272
  0.5111027193256064  0.4003799739647178  0.0302468797904822
  0.5259484246427277  0.6527599804143733  0.9574011528029160
  0.3793210008140804  0.4132425063539600  0.9694680563588420
  0.8782853498791567  0.6364442977209990  0.2232555804826148
  0.7021763913868284  0.8452849142455321  0.2159808727680925
  0.7022101518783685  0.6291865842932012  0.3137999098734028
  0.7560841767444373  0.9277232878991271  0.2867061486509144
  0.8406340886466808  0.1943249705407908  0.1645711393872844
  0.2391420558550692  0.8869396297313799  0.1319110054824080
  0.1494391647720974  0.0947923700489142  0.8619340178786317
  0.7735623164828311  0.8889366148426205  0.8552661643879702
  0.4059401776439344  0.1188766734816724  0.0972963610306437
  0.1572136720096680  0.3910811884534482  0.1005212627445502
  0.1593371771572265  0.1065141160457159  0.3986694046932868
  0.4552832369726687  0.3387397196097695  0.3936792727158007
  0.8426698199127785  0.5619605666703222  0.6184927640055591
  0.1757383913884070  0.4452022827614996  0.6903325943674616
  0.2482362520782715  0.6133570158655175  0.3539966752294177
  0.8362971808196846  0.4062204069943860  0.3767909464223536
  0.4544927379226209  0.7388805694258735  0.6391443668144632
  0.0861238532165842  0.9006636635938179  0.5997891434730676
  0.0233167398118468  0.6218944985569266  0.8851995911462467
  0.4276042775403113  0.8613317239375036  0.8676897684077005
  0.3026558908589010  0.0577385566346535  0.6542448099664000
  0.6553022524792453  0.9800551547391336  0.6283381160058497
  0.7183323395454337  0.0862558538428928  0.3734943708464158
  0.3551722779022342  0.9187311297755798  0.3437937199260546
  0.0280596315481105  0.2454921430739390  0.6177436872065485
  0.6113342709286727  0.3514190861178292  0.6052753966199447
  0.5069781026595308  0.2087945766855199  0.8678196856404128
  0.8770039088766950  0.3304968461750590  0.8776878406231248
  0.3476921520317546  0.6136393195976737  0.1536845072460977
  0.6639471858609198  0.4215470987358572  0.1218099319658563
  0.6087608265531728  0.5995108473708370  0.8504754740969602
  0.2790681095645624  0.3740604756222936  0.8558344315339852
  0.9107790796742066  0.5955367201379786  0.1006872449095297
  0.6137161702233485  0.7583992343098913  0.1281808747984883
  0.5706741004691693  0.6327128481432140  0.3795398021411529
  0.9345800384610428  0.8662621566402109  0.3835247820894736
  0.0474920866672619  0.1302115506959183  0.1551826625163955
  0.0672220320418049  0.8284851970479892  0.1772756985677972
  0.0364036319632319  0.1922307308118292  0.8110344175719675
  0.9286011941599526  0.8046147764029499  0.8130383449643261
  0.2405288931655889  0.0749116191757793  0.0491089940196829
  0.1218501501137013  0.4443401639750348  0.0280465648686814
  0.1614674761515573  0.0498621555179000  0.4718794189600217
  0.2953126590020432  0.4202571560831103  0.4369542483124533
  0.9591528276459087  0.6854204543884421  0.6681914051642579
  0.0483812792706786  0.2862199848276603  0.6922339437565626
  0.0692818371602968  0.6366033914756386  0.3118107609196485
  0.9961626835608755  0.3131728530970079  0.3301685605023863
  0.3169664663629916  0.5659131505998545  0.5873287232391675
  0.2183895889794911  0.8608634181647119  0.5391286443128536
  0.1610809093692254  0.5348692312047021  0.9291657431290687
  0.2448774499186968  0.8461286105716326  0.9156850843357702
  0.4034998559291765  0.2181216766965122  0.6829987105515229
  0.6032214076058438  0.8600155941309637  0.6867497077365456
  0.6183061609105422  0.1892411716516733  0.3224009355936417
  0.4918582751091378  0.7969066900379644  0.3108114844163055
  0.7967557751066821  0.0732006605658739  0.5522236655783672
  0.6629979108227602  0.4548660629365102  0.5400817632998454
  0.6407444193511367  0.0881951553650211  0.9303781160367350
  0.7318780802392411  0.4216431922764627  0.9286796665108525
  0.4207994589013282  0.7144374517460435  0.2171378362443690
  0.5548293205708035  0.3175959770515746  0.1736121652211011
  0.5856904803827092  0.7008501044283406  0.7861348593769151
  0.4205243900559381  0.2932323296181636  0.8027029145075559
  0.7816629419772099  0.5746468070936501  0.0393469289979222
  0.7496392924963899  0.8891805339957841  0.0916194749071408
  0.6729529580715123  0.5257080679625687  0.4324722165311101
  0.7907553028477992  0.8724602105455830  0.4439972472415832
  0.9317689043098767  0.0436387897491457  0.2741377009603312
  0.1491614092425095  0.9455141894126982  0.3020130930082772
  0.0605234395366594  0.0094247348071690  0.7005416549518557
  0.8648829989879872  0.9681658259445882  0.7425399510854902
  0.2787209878670467  0.2498571013391810  0.9543352416297921
  0.0692688269464057  0.2886203930917262  0.9901031294306151
  0.1094584311403040  0.2127051737288141  0.5100346632287085
  0.3341361054037577  0.2728771664157534  0.5436503601517870
  0.8935495493585321  0.5519855876907727  0.7771583585138444
  0.1372710561436250  0.4508401142625118  0.8108014905551357
  0.1321911662820625  0.5821218657106826  0.1843276562862783
  0.8409433961507276  0.4450317942030964  0.2216978370203222
  0.3758282322215578  0.6688653571325460  0.4571803716505585
  0.1178688307073088  0.8144013366291105  0.4156363399708027
  0.1122189005952521  0.6623947165567330  0.0699538108017563
  0.4423043887956339  0.8512446762417625  0.0472909022643861
  0.3636234889909744  0.0418960988999473  0.7768479380413780
  0.6324704077730487  0.9767295244513434  0.8040608557051314
  0.5858096806224964  0.9889691592572731  0.1932368950392060
  0.3795140333755569  0.9034277261152397  0.2148363886467806
  0.8516218813717700  0.2084392830786754  0.4986591358619208
  0.6053371276411212  0.2823444531983910  0.4463583248815297
  0.5643985143378742  0.1004994263029815  0.0062248970591483
  0.7362337092880509  0.1973327388955610  0.0379183383157979
  0.3822124631153017  0.5424916243847022  0.2991768697437038
  0.6215533092062486  0.4278221737876962  0.2415778316504174
  0.6523229450391241  0.5675474793136104  0.7322691121121210
  0.4498929129273890  0.4973086707925702  0.7019370002206742
  0.8692289338548207  0.6917506632980235  0.9321998385324335
  0.5789033294634010  0.8312451358501889  0.9514837165133585
  0.6412979433344859  0.7203501925456024  0.5412972467745689
  0.8870548393264812  0.8266452768996047  0.5744945631274092
  0.0512311173207038  0.2006217376516943  0.0747351343739382
  0.9039546515718300  0.7682036440017299  0.0483302622168011
  0.8421282044419272  0.2269571801539172  0.9518504660164666
  0.2015996890346301  0.7052632375062942  0.9811463863797272
  0.1431253612605374  0.0112411209799603  0.2144447023855136
  0.3685841295990429  0.4498243327193450  0.2123163105257149
  0.4034952622500256  0.1282364621606860  0.3644421867790797
  0.1452572599034525  0.4444275327923819  0.2855416380119919
  0.1809454470753451  0.6410178665172097  0.5154246573634964
  0.8758074246418701  0.3629569424434109  0.5627789667437000
  0.8330899100745626  0.6278095886281250  0.4866762620023337
  0.9394428798681744  0.2226139871014681  0.4105804360377903
  0.0981920567754031  0.6209603494288203  0.7326246419377398
  0.3672123707227826  0.9045980970105063  0.7061580837172841
  0.4540618422646077  0.5033748185163631  0.7922673230782351
  0.0936218139180411  0.9749466694615307  0.7892256303481631
  0.6246893341834863  0.2356967135309205  0.5317165947100619
  0.4035056307201188  0.7247809397778084  0.5424602602764423
  0.3364355803890930  0.2126228210568399  0.4570760163284220
  0.6185613867145676  0.7207362969055424  0.4572314201422429
  0.5521797711080225  0.0729146932238720  0.7084515272167451
  0.9296427065750805  0.4770219102488298  0.6933096196159170
  0.8483673858233374  0.1141919590597809  0.8632203011495818
  0.8290184742135551  0.5251433656757527  0.8571543836538211
  0.6532498308163355  0.7567830699621538  0.0289480411507412
  0.3189073342555631  0.2786615958187255  0.0493694096365331
  0.3596752094411002  0.6470218864529116  0.8849926540451563
  0.5672473095382458  0.2791715927411005  0.9578263463759811
  0.6524484494172924  0.5941960327068685  0.1815137091666159
  0.8790312920954477  0.9926100511736351  0.1910506070818840
  0.8862034048070129  0.4920858676780924  0.3042558408630782
  0.5140650698850209  0.0171325130276827  0.2820715177227839
  0.8627348802352657  0.6373387862831166  0.3844140605018751
  0.6657619900366427  0.3618479400197003  0.8343563744168208
  0.5498888232414529  0.5755597270689776  0.0832903407613017
  0.1870270811010712  0.1032598911895306  0.5801529795076306
  0.8052604914311985  0.7517346138166374  0.7313442766278158
  0.5651543431261885  0.5623803629581730  0.6109714773004526
  0.4271167607162454  0.4800679969309485  0.5112219068825326
  0.4189865938339139  0.9354813573772702  0.5906474367840744
  0.2095569343492798  0.1820836158866044  0.7429878048849972
  0.2705801425325944  0.2416392563031877  0.1552967828653493
  0.6702455114549011  0.0845315503701869  0.1121788890487068
  0.2144400445494909  0.2975060825840075  0.3672480839328784
  0.9249596967426328  0.3922812427226106  0.1382448884053034
  0.8514779468643923  0.7585818555151036  0.1490346413245689
  0.0154023378400296  0.9048817124724451  0.8911214004892969
  0.3465387955023687  0.9542084294396318  0.9816959832210870
  0.4978633685657101  0.4332896267680084  0.8933559123699908
  0.1770585688684960  0.7435343000111416  0.2476780813802648
  0.1825429632494533  0.7194963111645905  0.6280967716814203
  0.6161515531020498  0.4175537980837021  0.3340031683440330
  0.0875987666468632  0.4800077011935713  0.6117705601898678
  0.0730130790321226  0.4742753673628499  0.3895788187689035
  0.8950724103248717  0.7702121344085313  0.3037397866405414
  0.9583156205032708  0.9380023086725160  0.5030408083584419
  0.9815809068980101  0.9709129981710589  0.1059138911523192
  0.5113263429271413  0.1491989680998174  0.6105788629770714
  0.3479554265063030  0.3724941228674012  0.6250096459742664
  0.1485946903583582  0.7693977437361355  0.8429565291651429
  0.8090101282068005  0.9553963435227217  0.9587837308682481
  0.7840459562491731  0.1901940413300665  0.6304892623108671
  0.9303081336335168  0.4990636988888539  0.9716468360139672
  0.6107192379254371  0.8688816947204359  0.3833292135550792
 
  0.00000000E+00  0.00000000E+00  0.00000000E+00
  0.00000000E+00  0.00000000E+00  0.00000000E+00
  0.00000000E+00  0.00000000E+00  0.00000000E+00
  0.00000000E+00  0.00000000E+00  0.00000000E+00
  0.00000000E+00  0.00000000E+00  0.00000000E+00
  0.00000000E+00  0.00000000E+00  0.00000000E+00
  0.00000000E+00  0.00000000E+00  0.00000000E+00
  0.00000000E+00  0.00000000E+00  0.00000000E+00
  0.00000000E+00  0.00000000E+00  0.00000000E+00
  0.00000000E+00  0.00000000E+00  0.00000000E+00
  0.00000000E+00  0.00000000E+00  0.00000000E+00
  0.00000000E+00  0.00000000E+00  0.00000000E+00
  0.00000000E+00  0.00000000E+00  0.00000000E+00
  0.00000000E+00  0.00000000E+00  0.00000000E+00
  0.00000000E+00  0.00000000E+00  0.00000000E+00
  0.00000000E+00  0.00000000E+00  0.00000000E+00
  0.00000000E+00  0.00000000E+00  0.00000000E+00
  0.00000000E+00  0.00000000E+00  0.00000000E+00
  0.00000000E+00  0.00000000E+00  0.00000000E+00
  0.00000000E+00  0.00000000E+00  0.00000000E+00
  0.00000000E+00  0.00000000E+00  0.00000000E+00
  0.00000000E+00  0.00000000E+00  0.00000000E+00
  0.00000000E+00  0.00000000E+00  0.00000000E+00
  0.00000000E+00  0.00000000E+00  0.00000000E+00
  0.00000000E+00  0.00000000E+00  0.00000000E+00
  0.00000000E+00  0.00000000E+00  0.00000000E+00
  0.00000000E+00  0.00000000E+00  0.00000000E+00
  0.00000000E+00  0.00000000E+00  0.00000000E+00
  0.00000000E+00  0.00000000E+00  0.00000000E+00
  0.00000000E+00  0.00000000E+00  0.00000000E+00
  0.00000000E+00  0.00000000E+00  0.00000000E+00
  0.00000000E+00  0.00000000E+00  0.00000000E+00
  0.00000000E+00  0.00000000E+00  0.00000000E+00
  0.00000000E+00  0.00000000E+00  0.00000000E+00
  0.00000000E+00  0.00000000E+00  0.00000000E+00
  0.00000000E+00  0.00000000E+00  0.00000000E+00
  0.00000000E+00  0.00000000E+00  0.00000000E+00
  0.00000000E+00  0.00000000E+00  0.00000000E+00
  0.00000000E+00  0.00000000E+00  0.00000000E+00
  0.00000000E+00  0.00000000E+00  0.00000000E+00
  0.00000000E+00  0.00000000E+00  0.00000000E+00
  0.00000000E+00  0.00000000E+00  0.00000000E+00
  0.00000000E+00  0.00000000E+00  0.00000000E+00
  0.00000000E+00  0.00000000E+00  0.00000000E+00
  0.00000000E+00  0.00000000E+00  0.00000000E+00
  0.00000000E+00  0.00000000E+00  0.00000000E+00
  0.00000000E+00  0.00000000E+00  0.00000000E+00
  0.00000000E+00  0.00000000E+00  0.00000000E+00
  0.00000000E+00  0.00000000E+00  0.00000000E+00
  0.00000000E+00  0.00000000E+00  0.00000000E+00
  0.00000000E+00  0.00000000E+00  0.00000000E+00
  0.00000000E+00  0.00000000E+00  0.00000000E+00
  0.00000000E+00  0.00000000E+00  0.00000000E+00
  0.00000000E+00  0.00000000E+00  0.00000000E+00
  0.00000000E+00  0.00000000E+00  0.00000000E+00
  0.00000000E+00  0.00000000E+00  0.00000000E+00
  0.00000000E+00  0.00000000E+00  0.00000000E+00
  0.00000000E+00  0.00000000E+00  0.00000000E+00
  0.00000000E+00  0.00000000E+00  0.00000000E+00
  0.00000000E+00  0.00000000E+00  0.00000000E+00
  0.00000000E+00  0.00000000E+00  0.00000000E+00
  0.00000000E+00  0.00000000E+00  0.00000000E+00
  0.00000000E+00  0.00000000E+00  0.00000000E+00
  0.00000000E+00  0.00000000E+00  0.00000000E+00
  0.00000000E+00  0.00000000E+00  0.00000000E+00
  0.00000000E+00  0.00000000E+00  0.00000000E+00
  0.00000000E+00  0.00000000E+00  0.00000000E+00
  0.00000000E+00  0.00000000E+00  0.00000000E+00
  0.00000000E+00  0.00000000E+00  0.00000000E+00
  0.00000000E+00  0.00000000E+00  0.00000000E+00
  0.00000000E+00  0.00000000E+00  0.00000000E+00
  0.00000000E+00  0.00000000E+00  0.00000000E+00
  0.00000000E+00  0.00000000E+00  0.00000000E+00
  0.00000000E+00  0.00000000E+00  0.00000000E+00
  0.00000000E+00  0.00000000E+00  0.00000000E+00
  0.00000000E+00  0.00000000E+00  0.00000000E+00
  0.00000000E+00  0.00000000E+00  0.00000000E+00
  0.00000000E+00  0.00000000E+00  0.00000000E+00
  0.00000000E+00  0.00000000E+00  0.00000000E+00
  0.00000000E+00  0.00000000E+00  0.00000000E+00
  0.00000000E+00  0.00000000E+00  0.00000000E+00
  0.00000000E+00  0.00000000E+00  0.00000000E+00
  0.00000000E+00  0.00000000E+00  0.00000000E+00
  0.00000000E+00  0.00000000E+00  0.00000000E+00
  0.00000000E+00  0.00000000E+00  0.00000000E+00
  0.00000000E+00  0.00000000E+00  0.00000000E+00
  0.00000000E+00  0.00000000E+00  0.00000000E+00
  0.00000000E+00  0.00000000E+00  0.00000000E+00
  0.00000000E+00  0.00000000E+00  0.00000000E+00
  0.00000000E+00  0.00000000E+00  0.00000000E+00
  0.00000000E+00  0.00000000E+00  0.00000000E+00
  0.00000000E+00  0.00000000E+00  0.00000000E+00
  0.00000000E+00  0.00000000E+00  0.00000000E+00
  0.00000000E+00  0.00000000E+00  0.00000000E+00
  0.00000000E+00  0.00000000E+00  0.00000000E+00
  0.00000000E+00  0.00000000E+00  0.00000000E+00
  0.00000000E+00  0.00000000E+00  0.00000000E+00
  0.00000000E+00  0.00000000E+00  0.00000000E+00
  0.00000000E+00  0.00000000E+00  0.00000000E+00
  0.00000000E+00  0.00000000E+00  0.00000000E+00
  0.00000000E+00  0.00000000E+00  0.00000000E+00
  0.00000000E+00  0.00000000E+00  0.00000000E+00
  0.00000000E+00  0.00000000E+00  0.00000000E+00
  0.00000000E+00  0.00000000E+00  0.00000000E+00
  0.00000000E+00  0.00000000E+00  0.00000000E+00
  0.00000000E+00  0.00000000E+00  0.00000000E+00
  0.00000000E+00  0.00000000E+00  0.00000000E+00
  0.00000000E+00  0.00000000E+00  0.00000000E+00
  0.00000000E+00  0.00000000E+00  0.00000000E+00
  0.00000000E+00  0.00000000E+00  0.00000000E+00
  0.00000000E+00  0.00000000E+00  0.00000000E+00
  0.00000000E+00  0.00000000E+00  0.00000000E+00
  0.00000000E+00  0.00000000E+00  0.00000000E+00
  0.00000000E+00  0.00000000E+00  0.00000000E+00
  0.00000000E+00  0.00000000E+00  0.00000000E+00
  0.00000000E+00  0.00000000E+00  0.00000000E+00
  0.00000000E+00  0.00000000E+00  0.00000000E+00
  0.00000000E+00  0.00000000E+00  0.00000000E+00
  0.00000000E+00  0.00000000E+00  0.00000000E+00
  0.00000000E+00  0.00000000E+00  0.00000000E+00
  0.00000000E+00  0.00000000E+00  0.00000000E+00
  0.00000000E+00  0.00000000E+00  0.00000000E+00
  0.00000000E+00  0.00000000E+00  0.00000000E+00
  0.00000000E+00  0.00000000E+00  0.00000000E+00
  0.00000000E+00  0.00000000E+00  0.00000000E+00
  0.00000000E+00  0.00000000E+00  0.00000000E+00
  0.00000000E+00  0.00000000E+00  0.00000000E+00
  0.00000000E+00  0.00000000E+00  0.00000000E+00
  0.00000000E+00  0.00000000E+00  0.00000000E+00
  0.00000000E+00  0.00000000E+00  0.00000000E+00
  0.00000000E+00  0.00000000E+00  0.00000000E+00
  0.00000000E+00  0.00000000E+00  0.00000000E+00
  0.00000000E+00  0.00000000E+00  0.00000000E+00
  0.00000000E+00  0.00000000E+00  0.00000000E+00
  0.00000000E+00  0.00000000E+00  0.00000000E+00
  0.00000000E+00  0.00000000E+00  0.00000000E+00
  0.00000000E+00  0.00000000E+00  0.00000000E+00
  0.00000000E+00  0.00000000E+00  0.00000000E+00
  0.00000000E+00  0.00000000E+00  0.00000000E+00
  0.00000000E+00  0.00000000E+00  0.00000000E+00
  0.00000000E+00  0.00000000E+00  0.00000000E+00
  0.00000000E+00  0.00000000E+00  0.00000000E+00
  0.00000000E+00  0.00000000E+00  0.00000000E+00
  0.00000000E+00  0.00000000E+00  0.00000000E+00
  0.00000000E+00  0.00000000E+00  0.00000000E+00
  0.00000000E+00  0.00000000E+00  0.00000000E+00
  0.00000000E+00  0.00000000E+00  0.00000000E+00
  0.00000000E+00  0.00000000E+00  0.00000000E+00
  0.00000000E+00  0.00000000E+00  0.00000000E+00
  0.00000000E+00  0.00000000E+00  0.00000000E+00
  0.00000000E+00  0.00000000E+00  0.00000000E+00
  0.00000000E+00  0.00000000E+00  0.00000000E+00
  0.00000000E+00  0.00000000E+00  0.00000000E+00
  0.00000000E+00  0.00000000E+00  0.00000000E+00
  0.00000000E+00  0.00000000E+00  0.00000000E+00
  0.00000000E+00  0.00000000E+00  0.00000000E+00
  0.00000000E+00  0.00000000E+00  0.00000000E+00
  0.00000000E+00  0.00000000E+00  0.00000000E+00
  0.00000000E+00  0.00000000E+00  0.00000000E+00
  0.00000000E+00  0.00000000E+00  0.00000000E+00
  0.00000000E+00  0.00000000E+00  0.00000000E+00
  0.00000000E+00  0.00000000E+00  0.00000000E+00
  0.00000000E+00  0.00000000E+00  0.00000000E+00
  0.00000000E+00  0.00000000E+00  0.00000000E+00
  0.00000000E+00  0.00000000E+00  0.00000000E+00
  0.00000000E+00  0.00000000E+00  0.00000000E+00
  0.00000000E+00  0.00000000E+00  0.00000000E+00
  0.00000000E+00  0.00000000E+00  0.00000000E+00
  0.00000000E+00  0.00000000E+00  0.00000000E+00
  0.00000000E+00  0.00000000E+00  0.00000000E+00
  0.00000000E+00  0.00000000E+00  0.00000000E+00
  0.00000000E+00  0.00000000E+00  0.00000000E+00
  0.00000000E+00  0.00000000E+00  0.00000000E+00
  0.00000000E+00  0.00000000E+00  0.00000000E+00
  0.00000000E+00  0.00000000E+00  0.00000000E+00
  0.00000000E+00  0.00000000E+00  0.00000000E+00
  0.00000000E+00  0.00000000E+00  0.00000000E+00
  0.00000000E+00  0.00000000E+00  0.00000000E+00
  0.00000000E+00  0.00000000E+00  0.00000000E+00
  0.00000000E+00  0.00000000E+00  0.00000000E+00
  0.00000000E+00  0.00000000E+00  0.00000000E+00
  0.00000000E+00  0.00000000E+00  0.00000000E+00
  0.00000000E+00  0.00000000E+00  0.00000000E+00
  0.00000000E+00  0.00000000E+00  0.00000000E+00
  0.00000000E+00  0.00000000E+00  0.00000000E+00
  0.00000000E+00  0.00000000E+00  0.00000000E+00
  0.00000000E+00  0.00000000E+00  0.00000000E+00
  0.00000000E+00  0.00000000E+00  0.00000000E+00
  0.00000000E+00  0.00000000E+00  0.00000000E+00
  0.00000000E+00  0.00000000E+00  0.00000000E+00
  0.00000000E+00  0.00000000E+00  0.00000000E+00
  0.00000000E+00  0.00000000E+00  0.00000000E+00
