SYSTEM = cpo27Zn

# continuation
ISTART = 1
ICHARG = 0
ISPIN = 2

# precision
ENCUT = 520
PREC = high
ISMEAR = 0 ; SIGMA = 0.05
GGA = PE
NELMIN = 4 ; LMAXMIX = 4
EDIFF = 1E-4 ; EDIFFG = -1E-2

# parallel
ALGO = Fast
IALGO=48
NSIM=4
NPAR=8
LREAL = Auto
LPLANE = .TRUE.
#LSCALAPACK = .FALSE.

# opt
NSW = 2000 ; ISIF = 3
IBRION = 2
POTIM = 0.1

LORBIT = 11
LAECHG = .FALSE.
LWAVE  = .TRUE.
LCHARG = .FALSE.

